# vtk DataFile Version 2.0
Really cool data
ASCII
DATASET POLYDATA
POINTS 79 float
0.0 0.0 0
0.125 0.0 0
0.125 0.025 0
0.175 0.025 0
0.175 0.0 0
0.3 0.0 0
0.3 0.1 0
0.175 0.1 0
0.175 0.07500000000000001 0
0.125 0.07500000000000001 0
0.125 0.1 0
0.0 0.1 0
0.03125000004370471 0.0 0
0.0625000001307804 0.0 0
0.09374999998068687 0.0 0
0.125 0.01250000001946666 0
0.1500000000542101 0.025 0
0.175 0.01249999996954493 0
0.2062499999498556 0.0 0
0.2375000000298155 0.0 0
0.2687499999363031 0.0 0
0.3 0.0333333333833971 0
0.3 0.06666666665533266 0
0.2687499999857699 0.1 0
0.2374999999335926 0.1 0
0.2062499998895469 0.09999999999999999 0
0.175 0.08749999992410584 0
0.1499999998970008 0.07500000000000001 0
0.125 0.08749999998373698 0
0.09374999993189857 0.09999999999999999 0
0.0624999998448236 0.1 0
0.03124999993393145 0.09999999999999999 0
0.0 0.0333333333833971 0
0.0 0.06666666665533266 0
0.1378547570355081 0.05872292154631246 0
0.1205274442651983 0.05862678463973545 0
0.07803612283544163 0.02746894678379668 0
0.2226162665830209 0.07211648701237751 0
0.04657850476242389 0.07368042341935963 0
0.1622706517654054 0.03938231233726987 0
0.252980499236 0.02602455144963511 0
0.109560885362774 0.06910636912149352 0
0.1035428582731431 0.05536550924987886 0
0.09446340455586462 0.07339030772034122 0
0.1297704041436086 0.04158982110107774 0
0.1132865766637887 0.01593857993116043 0
0.186753216184187 0.08404751813713929 0
0.1877801982831638 0.06703918828045416 0
0.1733905086174061 0.0598112640259766 0
0.1856181996521408 0.04946247546871016 0
0.1868846907912053 0.01597385514967477 0
0.1131718100429242 0.03296260135460721 0
0.04701194323136633 0.02605904576954292 0
0.1472836510273114 0.04403708240920157 0
0.156522442137825 0.05549035706134775 0
0.2530435320912519 0.07390570197147181 0
0.2225760006839336 0.02724783760424724 0
0.02677278634880424 0.04999031169197893 0
0.0585714362847925 0.05091877290869405 0
0.1878893412851503 0.03238808265173287 0
0.2732128773237721 0.04999740635679935 0
0.2405675714137089 0.04967440931258933 0
0.2028012289770727 0.05786760313150688 0
0.09855331488684695 0.02421843491374789 0
0.2022125407954209 0.02420632934680947 0
0.2019215881935539 0.07550588152163751 0
0.1106342982879173 0.08513466862109817 0
0.1763847799930755 0.03897617889497943 0
0.08376496491711016 0.05310692347303086 0
0.1153646765920849 0.04606322378801621 0
0.07093261472684372 0.07688653339035037 0
0.02248813842537181 0.07689914103870149 0
0.02248813853232256 0.02310085904459931 0
0.2775118614781718 0.07689914096938054 0
0.2775118615121814 0.02310085899762184 0
0.2019844792914555 0.04127381659182398 0
0.09873895792459182 0.03986427326051295 0
0.2189762525642749 0.04875447148100505 0
0.1708373164331706 0.04862451755765676 0
POLYGONS 122 488
3 27 9 34
3 34 9 35
3 2 44 51
3 9 28 66
3 10 29 66
3 28 10 66
3 38 57 58
3 57 52 58
3 13 36 52
3 18 19 56
3 19 40 56
3 60 55 61
3 40 60 61
3 13 14 36
3 16 39 53
3 43 29 70
3 34 35 44
3 18 56 64
3 41 9 66
3 14 45 63
3 52 36 58
3 34 53 54
3 56 40 61
3 68 43 70
3 34 44 53
3 53 39 54
3 58 68 70
3 50 18 64
3 30 31 38
3 12 13 52
3 36 14 63
3 51 44 69
3 24 25 37
3 23 24 55
3 24 37 55
3 19 20 40
3 27 34 54
3 25 46 65
3 47 8 48
3 29 43 66
3 48 54 78
3 29 30 70
3 33 32 57
3 35 9 41
3 21 22 60
3 55 37 61
3 11 33 71
3 32 0 72
3 22 6 73
3 31 11 71
3 5 21 74
3 0 12 72
3 6 23 73
3 20 5 74
3 44 35 69
3 54 39 78
3 37 25 65
3 68 36 76
3 38 58 70
3 58 36 68
3 47 48 49
3 30 38 70
3 43 41 66
3 49 48 78
3 36 63 76
3 56 61 77
3 64 56 75
3 57 38 71
3 52 57 72
3 38 31 71
3 75 56 77
3 12 52 72
3 67 49 78
3 55 60 73
3 60 40 74
3 23 55 73
3 40 20 74
3 33 57 71
3 57 32 72
3 42 43 68
3 59 49 67
3 35 41 42
3 15 2 45
3 45 2 51
3 35 42 69
3 26 8 46
3 60 22 73
3 59 50 64
3 21 60 74
3 61 37 77
3 46 8 47
3 47 49 62
3 42 41 43
3 3 59 67
3 3 17 50
3 45 51 63
3 3 50 59
3 49 59 75
3 51 69 76
3 37 62 77
3 42 68 76
3 69 42 76
3 46 47 65
3 59 64 75
3 62 37 65
3 62 49 75
3 47 62 65
3 63 51 76
3 39 67 78
3 62 75 77
3 14 1 45
3 1 15 45
3 2 16 44
3 16 3 39
3 39 3 67
3 17 4 50
3 4 18 50
3 25 7 46
3 7 26 46
3 8 27 48
3 44 16 53
3 48 27 54
CELL_DATA 122
SCALARS mises double 1
LOOKUP_TABLE default
15070675.028476328 10500462.430995386 8941894.67930289 3377025.8834726945 1609827.3584562256 1848421.5027951198 7089556.596991622 7080779.618693384 6962169.324878789 5605432.991503693 6692128.467325822 5851072.634632697 5872925.029250594 5331146.7538036965 12548927.65624069 6982229.788387405 10477023.43025396 7025479.135115776 9484704.48791991 4666430.725885021 7113194.0528508695 12061763.681368189 6767108.613889589 7426499.564439264 11640341.027671235 12100290.369682934 8112808.562145631 4684967.307181566 6222442.171278294 6189756.904562779 6975405.284934765 10862844.119457817 5648415.153446215 7538735.606940436 6685839.648820604 7542264.08187514 12331279.33296116 4722952.537723245 8738801.763661217 4919253.073900536 11471576.210735008 5091289.504087787 5996226.945170639 8450412.090569621 6890482.6520770565 6763066.222196525 6055890.104793088 6067105.581085132 7258260.14808627 6754738.65336685 7257951.750091905 6742889.945560162 9839342.837558318 9839689.967670603 9860443.155418122 10666684.94556016 6998964.942937342 8960121.853649193 7058823.0718682045 8103904.111403946 10481866.551858418 6814300.404647056 7588912.2285702545 9617055.981795963 7370832.739281602 7706160.399148892 7347117.975001836 6525290.914245473 6560098.010082408 6711834.875751453 8660421.873649893 6734707.5973037975 9874958.325989075 6306992.808779237 6305950.878759772 6272291.227365265 6272961.323938927 6203995.613934758 6213953.01755058 9391228.664473677 10668215.198446505 10352418.71458027 3771877.9895134424 10064072.175440725 9579895.047702858 3823243.450622646 4717077.847347325 6923602.923454548 4717761.7952882135 7594072.47668787 9975255.883389832 8903601.106324192 8957120.610507404 8405481.49225923 3797357.13972329 7021603.331998341 9744404.849260371 8914368.662529591 9116939.27020533 8640371.72967462 9064293.446774134 10196417.586165192 6965346.218721896 9544831.781400017 7303510.990926428 10336427.51070214 9485653.900380097 9497910.070544865 11015879.287128473 8312429.336386592 1573179.1171136377 1202684.353868694 14612074.257977014 15502471.798190495 10830295.410396814 1240229.8952331613 1634852.6221627577 1665906.916098443 1185765.0711005123 14530015.792530604 11778953.082243683 11821402.448221138
VECTORS principal_stress_1 float
-138131.44561435794 -1500363.7835187449 0.0
-358676.3841098175 -1690825.115230554 0.0
-217449.05168526183 1111795.5074261706 0.0
795700.3616696505 878217.136492962 0.0
-317802.1806076269 -369792.30123575736 0.0
87011.50162917131 628886.0185541875 0.0
2455.5394444245217 205309.67445455634 0.0
1991.1545610519747 -211112.13560072542 0.0
8102.268790556597 -144530.63535383614 0.0
74074.82171112648 419960.445616777 0.0
12315.803641886658 106171.05204546511 0.0
-4515.190598924636 57729.79085299909 0.0
-4500.700438718888 -56575.55874830599 0.0
74729.5124081674 -544242.4659709084 0.0
-27735.640677062485 -851768.6281327227 0.0
94971.87428267424 581271.9805226581 0.0
-64698.58452573485 2103779.2598901414 0.0
75466.15030993427 480487.1065129871 0.0
26224.995585660596 140942.75426166927 0.0
58548.74472020618 -570881.7486738324 0.0
29083.119667047133 -579568.8174361137 0.0
-55848.09712247192 -1475014.2051337936 0.0
25612.999456964637 272414.8770019566 0.0
90894.7335329161 1084819.162652528 0.0
-15013.795405253442 2342828.443989989 0.0
-95521.0388719083 -1765172.5802394203 0.0
33982.02989873004 747599.383750845 0.0
70952.61092080487 581307.6498271909 0.0
4282.929719313811 113297.21278210024 0.0
7771.398915578495 -169414.43920928618 0.0
66579.03404484775 -491315.506505138 0.0
-23853.310670456798 456289.69022926316 0.0
73400.30251877308 -422547.21545683144 0.0
17027.802826807576 -155433.59132963954 0.0
11918.545702679583 -103264.41795318677 0.0
17638.04856335919 160772.63910759534 0.0
-15293.750822034795 -730510.7263723552 0.0
69841.34871029257 -571353.0752351155 0.0
-138208.37763492155 766119.4584189925 0.0
100125.29852378702 879525.9813688488 0.0
-134267.4788491254 2156687.5170262386 0.0
46601.0556984632 404006.86221401935 0.0
-693.415782248746 -1308482.3395914757 0.0
-154024.90478303426 -1072814.1589662035 0.0
31.754929120965777 -2404605.8264780114 0.0
23030.986875449165 -250450.76482255646 0.0
-95393.1344371539 -1288861.9287269926 0.0
-95471.59615573923 1291319.8380184195 0.0
295033.94726285787 -1418109.0550171405 0.0
-33957.01160384006 -379955.1053245102 0.0
294985.0317733719 1417884.2591546527 0.0
-34048.83808624275 373578.74225069594 0.0
14770.512905329566 -334256.2235149832 0.0
14780.682052735805 334539.06299927004 0.0
-57719.51310576388 -1151460.4962617324 0.0
-9348.182991130348 -2197104.027904682 0.0
73974.24003731011 -481189.33434444293 0.0
39886.99422133567 -990686.7636689163 0.0
39248.77660524007 670126.1802998137 0.0
40151.969427256794 -1092756.477312943 0.0
-17817.409029996143 528519.9769118737 0.0
938.8159669885067 16843.254004928946 0.0
207002.03248961226 743419.8019186704 0.0
-127504.14455171318 1899000.02637253 0.0
207966.3512535687 -1191179.8433368218 0.0
54215.779846619145 821513.2596304971 0.0
200199.55109347258 1133930.3895560782 0.0
-19643.75242703748 -418773.17496010783 0.0
-18515.91228613097 414242.66674979933 0.0
322.9456961062974 17406.133264845663 0.0
38496.41514729742 638851.1495705778 0.0
464.48025119895345 -23809.489391879855 0.0
-114977.16821871295 -1400262.2560325023 0.0
-11864.120167615632 120055.4159354143 0.0
-11629.059173040614 -117210.43908673765 0.0
25416.213082799517 -170651.81082069504 0.0
25345.015229321245 169942.05073977387 0.0
-13729.244332065757 -402841.5347673867 0.0
-12830.215938747902 390577.8169149842 0.0
87868.2163966481 1008370.4374338993 0.0
-25233.57964699194 -529984.4503252482 0.0
20703.57402955005 199975.54711614823 0.0
579023.9013813687 -682254.2605613102 0.0
-50970.30566784298 261178.59155742888 0.0
-8614.882577047196 527390.5594818128 0.0
568270.656846332 -661060.6128675907 0.0
-1233.635692862863 117310.94556355772 0.0
218922.9987368608 661482.2127627967 0.0
-1228.6479882818064 -116308.99309429778 0.0
49249.23397038782 -797378.7697820177 0.0
-35721.620685004724 170359.65409418577 0.0
1505.6821267933292 -16207.55124342441 0.0
43657.81782553994 653898.6877812928 0.0
-303379.8645460674 -1474906.9973260728 0.0
591687.8773901651 699635.7742759442 0.0
218096.63094945476 -711122.2974343078 0.0
-49811.39684555279 -235517.79840974612 0.0
-1112.4224581995693 -12100.125701880375 0.0
6950.881593908654 -72337.96309166998 0.0
33046.07388166426 -592171.9800435978 0.0
43672.795453448256 -1010275.7161067426 0.0
1558.9733372523488 507400.7442396234 0.0
219809.14671174745 -704860.1349854859 0.0
49460.51466197334 489195.6605517739 0.0
184812.0369149394 -1089751.805630883 0.0
1123.4056178826652 622806.7857691926 0.0
53385.29843243801 -535388.9302064572 0.0
56382.45841253242 -564586.7531091351 0.0
-30024.546822402415 -2173827.4071413893 0.0
2628.5526103286547 -1080618.3114981675 0.0
-194433.02547787203 222732.40535361823 0.0
19483.940372885605 -624859.6332405399 0.0
-229182.00925940668 1539936.4260709358 0.0
-127034.20595942481 -1291337.7747645103 0.0
-439453.2820394302 -1946012.636930326 0.0
29360.74211987083 627201.8020959959 0.0
-203806.52544289693 -233536.2339994305 0.0
-193186.00782725858 226689.32302337096 0.0
39833.89695522502 -599496.9167952668 0.0
-271335.99711964326 1609723.0180173232 0.0
-41973.99257907634 1014769.6238955219 0.0
-50030.1992762454 1261006.6794987074 0.0
VECTORS principal_stress_2 float
1500363.7835187449 -138131.44561435806 0.0
1690825.1152305538 -358676.384109818 0.0
-1111795.5074261706 -217449.05168526177 0.0
-878217.136492962 795700.3616696505 0.0
369792.3012357573 -317802.180607627 0.0
-628886.0185541875 87011.50162917149 0.0
-205309.67445455634 2455.539444424489 0.0
211112.13560072542 1991.1545610519622 0.0
144530.63535383614 8102.268790556588 0.0
-419960.44561677694 74074.8217111266 0.0
-106171.05204546511 12315.803641886689 0.0
-57729.79085299909 -4515.190598924633 0.0
56575.55874830599 -4500.700438718893 0.0
544242.4659709084 74729.51240816737 0.0
851768.6281327227 -27735.640677062725 0.0
-581271.9805226581 94971.87428267427 0.0
-2103779.2598901414 -64698.58452573471 0.0
-480487.1065129871 75466.1503099343 0.0
-140942.75426166927 26224.995585660636 0.0
570881.7486738324 58548.744720206145 0.0
579568.8174361137 29083.119667047096 0.0
1475014.2051337936 -55848.097122472005 0.0
-272414.8770019566 25612.999456964655 0.0
-1084819.162652528 90894.73353291617 0.0
-2342828.443989989 -15013.795405253299 0.0
1765172.5802394203 -95521.03887190802 0.0
-747599.383750845 33982.02989873025 0.0
-581307.6498271909 70952.61092080505 0.0
-113297.21278210024 4282.929719313818 0.0
169414.43920928618 7771.398915578484 0.0
491315.506505138 66579.03404484772 0.0
-456289.69022926316 -23853.31067045677 0.0
422547.21545683144 73400.30251877307 0.0
155433.59132963954 17027.802826807565 0.0
103264.41795318677 11918.545702679578 0.0
-160772.6391075953 17638.048563359236 0.0
730510.7263723552 -15293.750822034839 0.0
571353.0752351155 69841.34871029254 0.0
-766119.4584189925 -138208.3776349215 0.0
-879525.9813688488 100125.29852378707 0.0
-2156687.5170262386 -134267.47884912527 0.0
-404006.86221401935 46601.05569846313 0.0
1308482.3395914757 -693.4157822488262 0.0
1072814.1589662035 -154024.9047830341 0.0
2404605.8264780114 31.754929120818538 0.0
250450.76482255646 23030.98687544915 0.0
1288861.9287269926 -95393.1344371537 0.0
-1291319.8380184195 -95471.59615573916 0.0
1418109.0550171405 295033.9472628578 0.0
379955.1053245102 -33957.01160384017 0.0
-1417884.2591546527 294985.031773372 0.0
-373578.74225069594 -34048.83808624273 0.0
334256.2235149832 14770.512905329546 0.0
-334539.06299927004 14780.682052735827 0.0
1151460.4962617324 -57719.51310576421 0.0
2197104.027904682 -9348.182991130481 0.0
481189.33434444293 73974.24003731008 0.0
990686.7636689163 39886.99422133561 0.0
-670126.1802998137 39248.77660524011 0.0
1092756.477312943 40151.96942725672 0.0
-528519.9769118737 -17817.40902999611 0.0
-16843.254004928946 938.8159669885115 0.0
-743419.8019186704 207002.0324896125 0.0
-1899000.02637253 -127504.14455171308 0.0
1191179.843336822 207966.35125356863 0.0
-821513.2596304971 54215.779846619385 0.0
-1133930.3895560782 200199.55109347263 0.0
418773.17496010783 -19643.752427037507 0.0
-414242.66674979933 -18515.912286130944 0.0
-17406.133264845663 322.9456961063023 0.0
-638851.1495705778 38496.4151472976 0.0
23809.489391879855 464.4802511989519 0.0
1400262.2560325023 -114977.16821871305 0.0
-120055.4159354143 -11864.120167615625 0.0
117210.43908673765 -11629.059173040621 0.0
170651.81082069504 25416.213082799506 0.0
-169942.05073977387 25345.015229321216 0.0
402841.5347673867 -13729.244332065782 0.0
-390577.8169149842 -12830.215938747879 0.0
-1008370.4374338993 87868.21639664817 0.0
529984.4503252482 -25233.579646991857 0.0
-199975.54711614823 20703.574029550018 0.0
682254.2605613102 579023.9013813686 0.0
-261178.59155742888 -50970.305667842964 0.0
-527390.5594818128 -8614.882577047163 0.0
661060.6128675909 568270.6568463319 0.0
-117310.94556355772 -1233.6356928628559 0.0
-661482.2127627967 218922.9987368607 0.0
116308.99309429778 -1228.6479882818137 0.0
797378.7697820177 49249.233970387766 0.0
-170359.65409418577 -35721.62068500472 0.0
16207.55124342441 1505.6821267933283 0.0
-653898.6877812928 43657.81782553984 0.0
1474906.9973260728 -303379.86454606714 0.0
-699635.7742759441 591687.8773901652 0.0
711122.2974343078 218096.6309494547 0.0
235517.79840974612 -49811.3968455528 0.0
12100.125701880375 -1112.4224581995675 0.0
72337.96309166998 6950.881593908651 0.0
592171.9800435978 33046.073881664226 0.0
1010275.7161067426 43672.79545344819 0.0
-507400.7442396234 1558.97333725238 0.0
704860.1349854859 219809.1467117474 0.0
-489195.6605517739 49460.51466197337 0.0
1089751.805630883 184812.03691493935 0.0
-622806.7857691926 1123.4056178827034 0.0
535388.9302064572 53385.29843243798 0.0
564586.7531091351 56382.45841253239 0.0
2173827.4071413893 -30024.546822402554 0.0
1080618.3114981675 2628.552610328589 0.0
-222732.40535361826 -194433.025477872 0.0
624859.6332405399 19483.94037288557 0.0
-1539936.4260709358 -229182.0092594066 0.0
1291337.7747645103 -127034.20595942461 0.0
1946012.636930326 -439453.28203943034 0.0
-627201.8020959959 29360.74211987073 0.0
233536.2339994305 -203806.5254428969 0.0
-226689.323023371 -193186.00782725858 0.0
599496.9167952668 39833.89695522499 0.0
-1609723.0180173232 -271335.99711964314 0.0
-1014769.6238955219 -41973.99257907628 0.0
-1261006.6794987074 -50030.19927624532 0.0
POINT_DATA 79
VECTORS displacements float
0.0 0.0 0.0
-2.9487010297073067e-05 6.61092553371527e-08 0.0
-4.25119231554553e-05 -6.55540715064654e-07 0.0
-7.973134837092667e-05 3.710025197914325e-08 0.0
-9.31026921320641e-05 7.447356198039477e-07 0.0
-0.0001295912843820461 -7.248460505468891e-06 0.0
-0.00012885064153548905 6.1047276717044784e-06 0.0
-9.221785786441579e-05 1.7649478395236695e-07 0.0
-7.939072249464369e-05 9.87652521074246e-07 0.0
-4.2702970907561304e-05 4.612608591601214e-07 0.0
-2.931560425585582e-05 -2.6812621949569305e-07 0.0
0.0 0.0 0.0
-1.03087881446119e-05 -2.9008026748672237e-06 0.0
-1.9535593594190245e-05 -4.222901315902774e-06 0.0
-2.7324739347573617e-05 -5.12327502788956e-06 0.0
-3.310556315785989e-05 5.326576306569727e-07 0.0
-6.063930308836311e-05 -1.6590261217705962e-06 0.0
-8.931865418568072e-05 1.216775600835039e-06 0.0
-9.534971874830946e-05 -4.717699125022797e-06 0.0
-0.00010365604058750288 -3.696934258460475e-06 0.0
-0.00011495591145568514 -3.1906122301683204e-06 0.0
-0.00011907579124166486 -3.3587597659306817e-06 0.0
-0.00011882811744150946 2.2146360437731517e-06 0.0
-0.00011421564983740065 2.5085113046335706e-06 0.0
-0.00010291876124535163 3.461345999691217e-06 0.0
-9.455116684756137e-05 4.970636341522504e-06 0.0
-8.87032728126072e-05 -2.735637427337697e-07 0.0
-6.132434672748411e-05 2.067948377863326e-06 0.0
-3.3156758469860776e-05 -8.030082307088823e-07 0.0
-2.711411334255775e-05 5.234146625954815e-06 0.0
-1.96288233816458e-05 4.173817146379284e-06 0.0
-1.032824443858493e-05 2.897356351950066e-06 0.0
0.0 0.0 0.0
0.0 0.0 0.0
-5.3706482641986724e-05 8.563837520628703e-08 0.0
-4.458364140059055e-05 4.6640637143451564e-07 0.0
-2.5073384051295955e-05 -2.7396592266032864e-06 0.0
-9.695566960583846e-05 2.3660193335563893e-06 0.0
-1.4536517665975029e-05 1.8300178445523923e-06 0.0
-6.855752630349101e-05 4.1329507886219104e-07 0.0
-0.0001071489322429664 -1.480641206034496e-06 0.0
-3.755887728101387e-05 1.8270596347932253e-06 0.0
-3.664400839483716e-05 5.589810629688616e-07 0.0
-3.069789549315424e-05 3.0073613407167438e-06 0.0
-4.926433382511938e-05 1.3102740795779817e-07 0.0
-3.360125662488645e-05 -2.6713674632235834e-06 0.0
-8.823523745905411e-05 2.783160969813929e-06 0.0
-8.288734704526073e-05 1.7112214134176564e-06 0.0
-7.480618601578615e-05 2.812630395310227e-07 0.0
-8.001964143507967e-05 2.2159472973008098e-07 0.0
-8.879760087523307e-05 -2.1579160687311516e-06 0.0
-3.944780123935872e-05 -1.519798269958073e-06 0.0
-1.4726289275113406e-05 -1.8407380577277884e-06 0.0
-5.946625500071711e-05 -2.730590875031064e-07 0.0
-6.48977335042645e-05 6.86849789707037e-07 0.0
-0.00010680590323880255 1.0232306611533163e-06 0.0
-9.730373009954675e-05 -2.4307203376590165e-06 0.0
-8.084252859408942e-06 8.568323660291026e-09 0.0
-1.8816236246343168e-05 7.621354764326109e-08 0.0
-8.31086898054002e-05 -1.2425666628813856e-06 0.0
-0.00011142210441810847 -3.7314430037274706e-07 0.0
-0.00010218107961818871 -1.5001817817091656e-07 0.0
-8.831782468355943e-05 1.1673570352770608e-06 0.0
-3.149301366905885e-05 -3.1556175769029216e-06 0.0
-9.09090920401875e-05 -2.7860259971371997e-06 0.0
-9.045867060770617e-05 3.0837717250330193e-06 0.0
-3.278065181589243e-05 3.0256639624682276e-06 0.0
-7.638618469187187e-05 -9.791077850289027e-08 0.0
-2.8263654258581967e-05 4.733893797263268e-07 0.0
-4.218383199193394e-05 -3.0484482891045376e-07 0.0
-2.2501516623163842e-05 2.9943611151514314e-06 0.0
-6.85803566711731e-06 1.020765682617202e-06 0.0
-6.870736966181573e-06 -1.0215370083151e-06 0.0
-0.00011448123748273579 1.0172153576096548e-06 0.0
-0.00011488048443961495 -1.8283847733584869e-06 0.0
-8.806758497477897e-05 -9.213183995555221e-07 0.0
-3.40539635617979e-05 -1.401864309058047e-06 0.0
-9.452246097746571e-05 -8.224803978925719e-08 0.0
-7.28205931149518e-05 1.9990682001876922e-07 0.0