# vtk DataFile Version 2.0
Really cool data
ASCII
DATASET POLYDATA
POINTS 79 float
0.0 0.0 0
0.125 0.0 0
0.125 0.025 0
0.175 0.025 0
0.175 0.0 0
0.3 0.0 0
0.3 0.1 0
0.175 0.1 0
0.175 0.07500000000000001 0
0.125 0.07500000000000001 0
0.125 0.1 0
0.0 0.1 0
0.03125000004370471 0.0 0
0.0625000001307804 0.0 0
0.09374999998068687 0.0 0
0.125 0.01250000001946666 0
0.1500000000542101 0.025 0
0.175 0.01249999996954493 0
0.2062499999498556 0.0 0
0.2375000000298155 0.0 0
0.2687499999363031 0.0 0
0.3 0.0333333333833971 0
0.3 0.06666666665533266 0
0.2687499999857699 0.1 0
0.2374999999335926 0.1 0
0.2062499998895469 0.09999999999999999 0
0.175 0.08749999992410584 0
0.1499999998970008 0.07500000000000001 0
0.125 0.08749999998373698 0
0.09374999993189857 0.09999999999999999 0
0.0624999998448236 0.1 0
0.03124999993393145 0.09999999999999999 0
0.0 0.0333333333833971 0
0.0 0.06666666665533266 0
0.1378547570355081 0.05872292154631246 0
0.1205274442651983 0.05862678463973545 0
0.07803612283544163 0.02746894678379668 0
0.2226162665830209 0.07211648701237751 0
0.04657850476242389 0.07368042341935963 0
0.1622706517654054 0.03938231233726987 0
0.252980499236 0.02602455144963511 0
0.109560885362774 0.06910636912149352 0
0.1035428582731431 0.05536550924987886 0
0.09446340455586462 0.07339030772034122 0
0.1297704041436086 0.04158982110107774 0
0.1132865766637887 0.01593857993116043 0
0.186753216184187 0.08404751813713929 0
0.1877801982831638 0.06703918828045416 0
0.1733905086174061 0.0598112640259766 0
0.1856181996521408 0.04946247546871016 0
0.1868846907912053 0.01597385514967477 0
0.1131718100429242 0.03296260135460721 0
0.04701194323136633 0.02605904576954292 0
0.1472836510273114 0.04403708240920157 0
0.156522442137825 0.05549035706134775 0
0.2530435320912519 0.07390570197147181 0
0.2225760006839336 0.02724783760424724 0
0.02677278634880424 0.04999031169197893 0
0.0585714362847925 0.05091877290869405 0
0.1878893412851503 0.03238808265173287 0
0.2732128773237721 0.04999740635679935 0
0.2405675714137089 0.04967440931258933 0
0.2028012289770727 0.05786760313150688 0
0.09855331488684695 0.02421843491374789 0
0.2022125407954209 0.02420632934680947 0
0.2019215881935539 0.07550588152163751 0
0.1106342982879173 0.08513466862109817 0
0.1763847799930755 0.03897617889497943 0
0.08376496491711016 0.05310692347303086 0
0.1153646765920849 0.04606322378801621 0
0.07093261472684372 0.07688653339035037 0
0.02248813842537181 0.07689914103870149 0
0.02248813853232256 0.02310085904459931 0
0.2775118614781718 0.07689914096938054 0
0.2775118615121814 0.02310085899762184 0
0.2019844792914555 0.04127381659182398 0
0.09873895792459182 0.03986427326051295 0
0.2189762525642749 0.04875447148100505 0
0.1708373164331706 0.04862451755765676 0
POLYGONS 122 488
3 27 9 34
3 34 9 35
3 2 44 51
3 9 28 66
3 10 29 66
3 28 10 66
3 38 57 58
3 57 52 58
3 13 36 52
3 18 19 56
3 19 40 56
3 60 55 61
3 40 60 61
3 13 14 36
3 16 39 53
3 43 29 70
3 34 35 44
3 18 56 64
3 41 9 66
3 14 45 63
3 52 36 58
3 34 53 54
3 56 40 61
3 68 43 70
3 34 44 53
3 53 39 54
3 58 68 70
3 50 18 64
3 30 31 38
3 12 13 52
3 36 14 63
3 51 44 69
3 24 25 37
3 23 24 55
3 24 37 55
3 19 20 40
3 27 34 54
3 25 46 65
3 47 8 48
3 29 43 66
3 48 54 78
3 29 30 70
3 33 32 57
3 35 9 41
3 21 22 60
3 55 37 61
3 11 33 71
3 32 0 72
3 22 6 73
3 31 11 71
3 5 21 74
3 0 12 72
3 6 23 73
3 20 5 74
3 44 35 69
3 54 39 78
3 37 25 65
3 68 36 76
3 38 58 70
3 58 36 68
3 47 48 49
3 30 38 70
3 43 41 66
3 49 48 78
3 36 63 76
3 56 61 77
3 64 56 75
3 57 38 71
3 52 57 72
3 38 31 71
3 75 56 77
3 12 52 72
3 67 49 78
3 55 60 73
3 60 40 74
3 23 55 73
3 40 20 74
3 33 57 71
3 57 32 72
3 42 43 68
3 59 49 67
3 35 41 42
3 15 2 45
3 45 2 51
3 35 42 69
3 26 8 46
3 60 22 73
3 59 50 64
3 21 60 74
3 61 37 77
3 46 8 47
3 47 49 62
3 42 41 43
3 3 59 67
3 3 17 50
3 45 51 63
3 3 50 59
3 49 59 75
3 51 69 76
3 37 62 77
3 42 68 76
3 69 42 76
3 46 47 65
3 59 64 75
3 62 37 65
3 62 49 75
3 47 62 65
3 63 51 76
3 39 67 78
3 62 75 77
3 14 1 45
3 1 15 45
3 2 16 44
3 16 3 39
3 39 3 67
3 17 4 50
3 4 18 50
3 25 7 46
3 7 26 46
3 8 27 48
3 44 16 53
3 48 27 54
CELL_DATA 122
SCALARS mises double 1
LOOKUP_TABLE default
11721636.16240268 8167026.400441112 6954806.91119982 2626576.1267076246 1252088.1699675953 1437661.2215602517 5514099.579481434 5507273.033571643 5415020.567108644 4359781.277567935 5204988.84715934 4550834.245362096 4567830.6047764635 4146447.4267144757 9760277.076436719 5430623.226207366 8148795.99224051 5464261.604339625 7376992.443075835 3629446.083814184 5532484.245936549 9381371.763959728 5263306.73179652 5776166.3577751005 9053598.575189127 9411336.970792228 6309962.230822778 3643863.50451072 4839677.257051001 4814255.354702655 5425315.174452613 8448878.74250898 4393211.725034748 5863460.990503129 5200097.465606634 5866205.434198037 9590995.043511553 3673407.4859589944 6796845.758109352 3826085.765379421 8922337.034248749 3959891.876701971 4663732.068620246 6572542.781967586 5359264.284943844 5260162.585918093 4710136.7698257705 4718859.87476988 5645313.371166602 5253685.648304237 5645073.660748542 5244469.928045528 7652822.192000663 7653092.212064108 7669233.580987732 8296310.514462974 5443639.346441151 6968983.649834619 5490195.742989162 6303036.518091068 8152562.862718845 5300011.444468001 5902487.390345401 7479932.410419514 5732869.844765951 5993680.333586572 5714425.155796979 5075226.281759827 5102298.437867125 5220316.020666956 6735883.700334687 5238105.902498623 7680523.167717194 4905438.818497348 4904628.494172422 4878448.681503025 4878969.969579415 4825329.932928303 4833074.558611625 7304288.991876504 8297500.725380257 8051881.257483421 2933682.4925131314 7827611.626675835 7451029.476257157 2973633.4061158276 3668838.322253518 5385024.618584842 3669370.2887013587 5906500.793568736 7758532.283008525 6925023.051567824 6966649.386809471 6537596.778717613 2953500.386020938 5461246.92304038 7578981.620514023 6933397.87938702 7090952.733408813 6720289.103840162 7050005.9989952445 7930547.012510525 5417491.388397364 7423758.08692627 5680508.487114337 8039443.620053557 7377730.777082671 7387263.353777747 8567906.116293285 6465222.8163312245 1223583.4953030103 935421.1521267291 11364946.597908888 12057478.096724074 8423563.165547812 964623.2698585842 1271552.3013538478 1295705.1168947578 922261.6963494931 11301123.340812149 9161407.939691633 9194424.113923624
VECTORS principal_stress_1 float
-107435.56881116565 -1166949.6094034647 0.0
-278970.52097430354 -1315086.2007348787 0.0
-169127.04019964676 864729.8391092317 0.0
618878.0590763927 683057.7728278579 0.0
-247179.4738059309 -287616.23429447634 0.0
67675.61237824471 489133.5699865914 0.0
1909.8640123300747 159685.3023535436 0.0
1548.6757697071032 -164198.32768945434 0.0
6301.764614877289 -112412.71638631675 0.0
57613.75021976456 326635.9021463806 0.0
9578.958388133688 82577.48492424835 0.0
-3511.8149102745806 44900.94844122105 0.0
-3500.5447856701617 -44003.21235979335 0.0
58122.954095241046 -423299.69575515116 0.0
-21572.16497104783 -662486.7107698944 0.0
73867.01333096894 452100.42929540126 0.0
-50321.121297795864 1636272.7576923296 0.0
58695.8946855041 373712.1939545462 0.0
20397.218788845534 109622.14220351263 0.0
45537.91256015954 -444019.13785742107 0.0
22620.204185481114 -450775.7468947553 0.0
-43437.40887303412 -1147233.270659621 0.0
19921.221799861338 211878.23766819105 0.0
70695.90385893403 843748.2376186334 0.0
-11677.396426308287 1822199.9008811107 0.0
-74294.14134481463 -1372912.0068528734 0.0
26430.46769901221 581466.1873617702 0.0
55185.36404951236 452128.1720878085 0.0
3331.167559466249 88120.05438607615 0.0
6044.421378783232 -131766.78605166677 0.0
51783.69314599276 -382134.28283733 0.0
-18552.574965911546 354891.98128942377 0.0
57089.124181267725 -328647.834244203 0.0
13243.84664307229 -120892.79325638412 0.0
9269.979990972945 -80316.76951914532 0.0
13718.482215946031 125045.38597257488 0.0
-11895.139528248676 -568175.0094007216 0.0
54321.04899689678 -444385.7251828812 0.0
-107495.40482716379 595870.6898814437 0.0
77875.23218516828 684075.7632868851 0.0
-104430.26132709582 1677423.624353756 0.0
36245.26554324917 314227.5594997942 0.0
-539.3233861934696 -1017708.4863489263 0.0
-119797.14816458344 -834411.0125292806 0.0
24.69827820810231 -1870248.9761495457 0.0
17912.989792017393 -194795.03930644403 0.0
-74194.66011778617 -1002448.1667876614 0.0
-74255.68589890834 1004359.8740143268 0.0
229470.8478711089 -1102973.7094577723 0.0
-26411.00902520901 -295520.63747461914 0.0
229432.80249040024 1102798.8682313971 0.0
-26482.42962263326 290561.2439727636 0.0
11488.176704145564 -259977.06273387835 0.0
11496.086041016255 260197.04899942392 0.0
-44892.95463781559 -895580.3859813444 0.0
-7270.808993097207 -1708858.6883703077 0.0
57535.52002901895 -374258.37115678884 0.0
31023.217727705276 -770534.1495202663 0.0
30526.826248519767 521209.2513443007 0.0
31229.309554533036 -849921.7045767327 0.0
-13857.984801108365 411071.09315369255 0.0
730.1901965466049 13100.308670500084 0.0
161001.58082525482 578215.4014923017 0.0
-99169.89020688641 1477000.020511978 0.0
161751.60653055384 -926473.2114841959 0.0
42167.828769591695 638954.757490387 0.0
155710.76196158916 881945.858543614 0.0
-15278.474109918121 -325712.4694134189 0.0
-14401.265111435278 322188.7408053996 0.0
251.17998586042378 13538.103650433914 0.0
29941.65622567562 496884.22744378384 0.0
361.2624175991688 -18518.49174923901 0.0
-89426.68639233343 -1089092.8658030562 0.0
-9227.649019256576 93376.43461643392 0.0
-9044.823801253802 -91163.67484524238 0.0
19768.16573106659 -132729.18619387536 0.0
19712.78962280436 132177.15057537425 0.0
-10678.301147162265 -313321.1937079677 0.0
-9979.056841248388 303782.74648943276 0.0
68341.94608628159 784288.1180041449 0.0
-19626.117503215 -412210.12803073996 0.0
16102.779800760758 155536.53664588963 0.0
450351.9232966213 -530642.202658797 0.0
-39643.57107498844 203138.90454466507 0.0
-6700.464226592278 410192.6573747441 0.0
441988.28865826945 -514158.2544525834 0.0
-959.4944277820352 91241.84654943869 0.0
170273.44346199752 514486.1654821627 0.0
-955.615101996727 -90462.55018444883 0.0
38304.95975474878 -620183.4876082438 0.0
-27783.482755002184 132501.95318435854 0.0
1171.0860986162197 -12605.873189321546 0.0
33956.08053097553 508587.86827434093 0.0
-235962.1168691572 -1147149.886809154 0.0
460201.6824145713 544161.157770176 0.0
169630.71296068392 -553095.1202266775 0.0
-38742.19754654052 -183180.50987424384 0.0
-865.2174674885966 -9411.208879240963 0.0
5406.241239707552 -56262.86018241656 0.0
25702.501907962327 -460578.2067005797 0.0
33967.72979712636 -785770.0014163579 0.0
1212.5348178631161 394645.02329748584 0.0
170962.66966469947 -548224.5494331735 0.0
38469.289181533815 380485.5137624851 0.0
143742.6953782845 -847584.7377129 0.0
873.7599250197517 484405.2778204879 0.0
41521.89878078561 -416413.61238280026 0.0
43853.023209748346 -439123.0301960021 0.0
-23352.42530630825 -1690754.6499988686 0.0
2044.429808033587 -840480.9089430199 0.0
-151225.68648278783 173236.3152750347 0.0
15154.175845579497 -486001.93696486333 0.0
-178252.6738684259 1197728.3313884935 0.0
-98804.38241288676 -1004373.8248168494 0.0
-341796.99714177457 -1513565.3842791507 0.0
22836.132759895092 487823.6238524345 0.0
-158516.1864555959 -181639.29311068048 0.0
-150255.7838656502 176313.91790707078 0.0
30981.91985406399 -466275.37972965173 0.0
-211039.10887083606 1252006.7917912537 0.0
-32646.438672616303 789265.2630298538 0.0
-38912.37721485882 980782.9729434386 0.0
VECTORS principal_stress_2 float
1166949.6094034647 -107435.56881116598 0.0
1315086.2007348787 -278970.5209743036 0.0
-864729.8391092317 -169127.0401996467 0.0
-683057.7728278581 618878.0590763926 0.0
287616.2342944763 -247179.47380593093 0.0
-489133.5699865914 67675.61237824464 0.0
-159685.3023535436 1909.8640123300847 0.0
164198.32768945434 1548.6757697070934 0.0
112412.71638631675 6301.764614877282 0.0
-326635.90214638057 57613.75021976458 0.0
-82577.48492424835 9578.958388133675 0.0
-44900.94844122105 -3511.8149102745783 0.0
44003.21235979335 -3500.5447856701744 0.0
423299.69575515116 58122.95409524102 0.0
662486.7107698944 -21572.16497104787 0.0
-452100.42929540126 73867.01333096896 0.0
-1636272.7576923296 -50321.12129779576 0.0
-373712.1939545462 58695.8946855042 0.0
-109622.14220351263 20397.218788845537 0.0
444019.13785742107 45537.91256015951 0.0
450775.7468947553 22620.204185481085 0.0
1147233.270659621 -43437.408873033935 0.0
-211878.23766819105 19921.221799861352 0.0
-843748.2376186334 70695.90385893409 0.0
-1822199.9008811107 -11677.396426308176 0.0
1372912.0068528734 -74294.14134481442 0.0
-581466.1873617702 26430.467699012246 0.0
-452128.1720878085 55185.36404951239 0.0
-88120.05438607615 3331.1675594662347 0.0
131766.78605166677 6044.421378783224 0.0
382134.28283733 51783.69314599274 0.0
-354891.98128942377 -18552.574965911524 0.0
328647.834244203 57089.1241812677 0.0
120892.79325638412 13243.846643072282 0.0
80316.76951914532 9269.97999097294 0.0
-125045.38597257488 13718.48221594604 0.0
568175.0094007216 -11895.139528248834 0.0
444385.7251828812 54321.04899689676 0.0
-595870.6898814437 -107495.40482716374 0.0
-684075.7632868851 77875.23218516832 0.0
-1677423.624353756 -104430.26132709571 0.0
-314227.55949979415 36245.26554324926 0.0
1017708.4863489263 -539.3233861935319 0.0
834411.0125292805 -119797.14816458368 0.0
1870248.9761495457 24.69827820798779 0.0
194795.03930644403 17912.989792017383 0.0
1002448.1667876614 -74194.66011778625 0.0
-1004359.8740143268 -74255.68589890828 0.0
1102973.7094577723 229470.84787110882 0.0
295520.63747461914 -26411.009025209027 0.0
-1102798.8682313971 229432.80249040056 0.0
-290561.2439727636 -26482.42962263324 0.0
259977.06273387835 11488.176704145548 0.0
-260197.04899942392 11496.086041016271 0.0
895580.3859813444 -44892.954637815645 0.0
1708858.688370308 -7270.808993096931 0.0
374258.37115678884 57535.52002901893 0.0
770534.1495202663 31023.21772770523 0.0
-521209.25134430063 30526.826248519916 0.0
849921.7045767327 31229.30955453298 0.0
-411071.09315369255 -13857.98480110834 0.0
-13100.308670500084 730.1901965466086 0.0
-578215.4014923017 161001.58082525484 0.0
-1477000.020511978 -99169.89020688634 0.0
926473.2114841959 161751.60653055378 0.0
-638954.757490387 42167.82876959174 0.0
-881945.858543614 155710.76196158942 0.0
325712.4694134189 -15278.474109918141 0.0
-322188.7408053996 -14401.265111435257 0.0
-13538.103650433914 251.1799858604276 0.0
-496884.22744378384 29941.65622567554 0.0
18518.49174923901 361.2624175991677 0.0
1089092.8658030562 -89426.68639233375 0.0
-93376.43461643392 -9227.64901925657 0.0
91163.67484524238 -9044.82380125381 0.0
132729.18619387536 19768.165731066583 0.0
-132177.15057537425 19712.78962280434 0.0
313321.1937079677 -10678.301147162285 0.0
-303782.74648943276 -9979.05684124837 0.0
-784288.1180041449 68341.94608628165 0.0
412210.1280307399 -19626.11750321511 0.0
-155536.53664588963 16102.779800760769 0.0
530642.202658797 450351.92329662124 0.0
-203138.90454466507 -39643.571074988424 0.0
-410192.6573747441 -6700.464226592251 0.0
514158.2544525834 441988.28865826945 0.0
-91241.84654943869 -959.4944277820298 0.0
-514486.1654821626 170273.44346199755 0.0
90462.55018444883 -955.6151019967126 0.0
620183.4876082438 38304.95975474874 0.0
-132501.95318435854 -27783.482755002176 0.0
12605.873189321546 1171.086098616219 0.0
-508587.86827434093 33956.08053097557 0.0
1147149.886809154 -235962.1168691573 0.0
-544161.157770176 460201.6824145714 0.0
553095.1202266775 169630.7129606839 0.0
183180.50987424384 -38742.19754654056 0.0
9411.208879240963 -865.2174674885973 0.0
56262.86018241656 5406.2412397075495 0.0
460578.2067005797 25702.501907962298 0.0
785770.0014163579 33967.72979712631 0.0
-394645.02329748584 1212.5348178631402 0.0
548224.5494331735 170962.66966469944 0.0
-380485.5137624851 38469.28918153376 0.0
847584.7377129 143742.69537828446 0.0
-484405.2778204879 873.7599250196739 0.0
416413.61238280026 41521.89878078559 0.0
439123.0301960021 43853.023209748324 0.0
1690754.6499988686 -23352.42530630798 0.0
840480.9089430199 2044.4298080335357 0.0
-173236.3152750347 -151225.6864827878 0.0
486001.93696486333 15154.175845579466 0.0
-1197728.3313884935 -178252.6738684258 0.0
1004373.8248168494 -98804.3824128866 0.0
1513565.3842791507 -341796.9971417746 0.0
-487823.6238524345 22836.132759895234 0.0
181639.29311068045 -158516.18645559592 0.0
-176313.91790707078 -150255.78386565018 0.0
466275.37972965173 30981.919854063966 0.0
-1252006.7917912537 -211039.108870836 0.0
-789265.2630298538 -32646.438672616256 0.0
-980782.9729434386 -38912.37721485876 0.0
POINT_DATA 79
VECTORS displacements float
0.0 0.0 0.0
-2.293434134216796e-05 5.141830970667998e-08 0.0
-3.306482912090967e-05 -5.098650006058399e-07 0.0
-6.201327095516518e-05 2.8855751539362378e-08 0.0
-7.241320499160534e-05 5.792388154031141e-07 0.0
-0.00010079322118603582 -5.6376915042533475e-06 0.0
-0.00010021716563871385 4.7481215224370295e-06 0.0
-7.172500056121246e-05 1.3727372085187158e-07 0.0
-6.174833971805629e-05 7.681741830577826e-07 0.0
-3.3213421816992165e-05 3.587584460134332e-07 0.0
-2.280102553233233e-05 -2.0854261516330755e-07 0.0
0.0 0.0 0.0
-8.017946334698148e-06 -2.256179858230064e-06 0.0
-1.5194350573259088e-05 -3.284478801257712e-06 0.0
-2.125257504811283e-05 -3.984769466136321e-06 0.0
-2.5748771345002158e-05 4.1428926828876013e-07 0.0
-4.716390240206018e-05 -1.2903536502659948e-06 0.0
-6.947006436664054e-05 9.463810228717317e-07 0.0
-7.416089235979621e-05 -3.6693215416843207e-06 0.0
-8.06213649013911e-05 -2.875393312135809e-06 0.0
-8.941015335442173e-05 -2.481587290130751e-06 0.0
-9.261450429907272e-05 -2.6123687068347395e-06 0.0
-9.242186912117416e-05 1.7224947007126555e-06 0.0
-8.883439431797843e-05 1.951064348048502e-06 0.0
-8.004792541305141e-05 2.6921579997599576e-06 0.0
-7.353979643699234e-05 3.8660504878509325e-06 0.0
-6.899143440980577e-05 -2.127717999040101e-07 0.0
-4.7696714121376594e-05 1.608404293893719e-06 0.0
-2.5788589921002856e-05 -6.245619572180121e-07 0.0
-2.1088754821989383e-05 4.071002931298201e-06 0.0
-1.5266862630168976e-05 3.2463022249616693e-06 0.0
-8.033079007788285e-06 2.253499384850053e-06 0.0
0.0 0.0 0.0
0.0 0.0 0.0
-4.1771708721545254e-05 6.660762516045295e-08 0.0
-3.4676165533792685e-05 3.62760511115745e-07 0.0
-1.9501520928785753e-05 -2.1308460651358854e-06 0.0
-7.540996524898562e-05 1.8402372594328575e-06 0.0
-1.1306180406869482e-05 1.4233472124296405e-06 0.0
-5.332252045827077e-05 3.2145172800394943e-07 0.0
-8.333805841119612e-05 -1.1516098269155793e-06 0.0
-2.9212460107455253e-05 1.4210463826169633e-06 0.0
-2.85008954182067e-05 4.347630489757895e-07 0.0
-2.387614093911999e-05 2.339058820557476e-06 0.0
-3.8316704086203976e-05 1.0191020618941002e-07 0.0
-2.6134310708245036e-05 -2.0777302491738924e-06 0.0
-6.862740691259779e-05 2.1646807542997815e-06 0.0
-6.446793659075842e-05 1.3309499882137876e-06 0.0
-5.818258912338927e-05 2.1876014185750094e-07 0.0
-6.223749889395091e-05 1.7235145645678567e-07 0.0
-6.90648006807368e-05 -1.6783791645686182e-06 0.0
-3.0681623186167885e-05 -1.1820653210784943e-06 0.0
-1.1453780547310433e-05 -1.4316851560105025e-06 0.0
-4.6251531667224435e-05 -2.1237929028017456e-07 0.0
-5.0476014947761307e-05 5.342165031054992e-07 0.0
-8.307125807462431e-05 7.958460697860614e-07 0.0
-7.568067896631415e-05 -1.8905602626235831e-06 0.0
-6.287752223984737e-06 6.664251735781763e-09 0.0
-1.4634850413822472e-05 5.927720372253828e-08 0.0
-6.464009207086683e-05 -9.664407377965767e-07 0.0
-8.666163676964002e-05 -2.902233447341868e-07 0.0
-7.947417303636908e-05 -1.1668080524391823e-07 0.0
-6.869164142054629e-05 9.079443607711266e-07 0.0
-2.4494566187045784e-05 -2.4543692264800463e-06 0.0
-7.070707158681251e-05 -2.166909108884413e-06 0.0
-7.03567438059938e-05 2.3984891194702054e-06 0.0
-2.5496062523471912e-05 2.3532941930308544e-06 0.0
-5.9411476982567055e-05 -7.615282772442543e-08 0.0
-2.1982842201119317e-05 3.6819173978714695e-07 0.0
-3.280964710483753e-05 -2.3710153359701135e-07 0.0
-1.7501179595794115e-05 2.3289475340066735e-06 0.0
-5.334027741091246e-06 7.939288642578241e-07 0.0
-5.343906529252337e-06 -7.945287842450781e-07 0.0
-8.904096248657239e-05 7.911675003632434e-07 0.0
-8.935148789747832e-05 -1.4220770459453127e-06 0.0
-6.849701053593923e-05 -7.165809774319983e-07 0.0
-2.64864161036206e-05 -1.0903389070451428e-06 0.0
-7.351746964914006e-05 -6.397069761376959e-08 0.0
-5.6638239089407e-05 1.554830822368601e-07 0.0