# vtk DataFile Version 2.0
Really cool data
ASCII
DATASET POLYDATA
POINTS 79 float
0.0 0.0 0
0.125 0.0 0
0.125 0.025 0
0.175 0.025 0
0.175 0.0 0
0.3 0.0 0
0.3 0.1 0
0.175 0.1 0
0.175 0.07500000000000001 0
0.125 0.07500000000000001 0
0.125 0.1 0
0.0 0.1 0
0.03125000004370471 0.0 0
0.0625000001307804 0.0 0
0.09374999998068687 0.0 0
0.125 0.01250000001946666 0
0.1500000000542101 0.025 0
0.175 0.01249999996954493 0
0.2062499999498556 0.0 0
0.2375000000298155 0.0 0
0.2687499999363031 0.0 0
0.3 0.0333333333833971 0
0.3 0.06666666665533266 0
0.2687499999857699 0.1 0
0.2374999999335926 0.1 0
0.2062499998895469 0.09999999999999999 0
0.175 0.08749999992410584 0
0.1499999998970008 0.07500000000000001 0
0.125 0.08749999998373698 0
0.09374999993189857 0.09999999999999999 0
0.0624999998448236 0.1 0
0.03124999993393145 0.09999999999999999 0
0.0 0.0333333333833971 0
0.0 0.06666666665533266 0
0.1378547570355081 0.05872292154631246 0
0.1205274442651983 0.05862678463973545 0
0.07803612283544163 0.02746894678379668 0
0.2226162665830209 0.07211648701237751 0
0.04657850476242389 0.07368042341935963 0
0.1622706517654054 0.03938231233726987 0
0.252980499236 0.02602455144963511 0
0.109560885362774 0.06910636912149352 0
0.1035428582731431 0.05536550924987886 0
0.09446340455586462 0.07339030772034122 0
0.1297704041436086 0.04158982110107774 0
0.1132865766637887 0.01593857993116043 0
0.186753216184187 0.08404751813713929 0
0.1877801982831638 0.06703918828045416 0
0.1733905086174061 0.0598112640259766 0
0.1856181996521408 0.04946247546871016 0
0.1868846907912053 0.01597385514967477 0
0.1131718100429242 0.03296260135460721 0
0.04701194323136633 0.02605904576954292 0
0.1472836510273114 0.04403708240920157 0
0.156522442137825 0.05549035706134775 0
0.2530435320912519 0.07390570197147181 0
0.2225760006839336 0.02724783760424724 0
0.02677278634880424 0.04999031169197893 0
0.0585714362847925 0.05091877290869405 0
0.1878893412851503 0.03238808265173287 0
0.2732128773237721 0.04999740635679935 0
0.2405675714137089 0.04967440931258933 0
0.2028012289770727 0.05786760313150688 0
0.09855331488684695 0.02421843491374789 0
0.2022125407954209 0.02420632934680947 0
0.2019215881935539 0.07550588152163751 0
0.1106342982879173 0.08513466862109817 0
0.1763847799930755 0.03897617889497943 0
0.08376496491711016 0.05310692347303086 0
0.1153646765920849 0.04606322378801621 0
0.07093261472684372 0.07688653339035037 0
0.02248813842537181 0.07689914103870149 0
0.02248813853232256 0.02310085904459931 0
0.2775118614781718 0.07689914096938054 0
0.2775118615121814 0.02310085899762184 0
0.2019844792914555 0.04127381659182398 0
0.09873895792459182 0.03986427326051295 0
0.2189762525642749 0.04875447148100505 0
0.1708373164331706 0.04862451755765676 0
POLYGONS 122 488
3 27 9 34
3 34 9 35
3 2 44 51
3 9 28 66
3 10 29 66
3 28 10 66
3 38 57 58
3 57 52 58
3 13 36 52
3 18 19 56
3 19 40 56
3 60 55 61
3 40 60 61
3 13 14 36
3 16 39 53
3 43 29 70
3 34 35 44
3 18 56 64
3 41 9 66
3 14 45 63
3 52 36 58
3 34 53 54
3 56 40 61
3 68 43 70
3 34 44 53
3 53 39 54
3 58 68 70
3 50 18 64
3 30 31 38
3 12 13 52
3 36 14 63
3 51 44 69
3 24 25 37
3 23 24 55
3 24 37 55
3 19 20 40
3 27 34 54
3 25 46 65
3 47 8 48
3 29 43 66
3 48 54 78
3 29 30 70
3 33 32 57
3 35 9 41
3 21 22 60
3 55 37 61
3 11 33 71
3 32 0 72
3 22 6 73
3 31 11 71
3 5 21 74
3 0 12 72
3 6 23 73
3 20 5 74
3 44 35 69
3 54 39 78
3 37 25 65
3 68 36 76
3 38 58 70
3 58 36 68
3 47 48 49
3 30 38 70
3 43 41 66
3 49 48 78
3 36 63 76
3 56 61 77
3 64 56 75
3 57 38 71
3 52 57 72
3 38 31 71
3 75 56 77
3 12 52 72
3 67 49 78
3 55 60 73
3 60 40 74
3 23 55 73
3 40 20 74
3 33 57 71
3 57 32 72
3 42 43 68
3 59 49 67
3 35 41 42
3 15 2 45
3 45 2 51
3 35 42 69
3 26 8 46
3 60 22 73
3 59 50 64
3 21 60 74
3 61 37 77
3 46 8 47
3 47 49 62
3 42 41 43
3 3 59 67
3 3 17 50
3 45 51 63
3 3 50 59
3 49 59 75
3 51 69 76
3 37 62 77
3 42 68 76
3 69 42 76
3 46 47 65
3 59 64 75
3 62 37 65
3 62 49 75
3 47 62 65
3 63 51 76
3 39 67 78
3 62 75 77
3 14 1 45
3 1 15 45
3 2 16 44
3 16 3 39
3 39 3 67
3 17 4 50
3 4 18 50
3 25 7 46
3 7 26 46
3 8 27 48
3 44 16 53
3 48 27 54
CELL_DATA 122
SCALARS mises double 1
LOOKUP_TABLE default
5023558.430255334 3500154.339332586 2980631.3749936325 1125676.6131768015 536609.7929899743 616140.6590904671 2363185.5444610487 2360259.863328146 2320723.0515683484 1868477.849696425 2230709.6068263426 1950357.4668208635 1957641.7558281696 1777048.772536012 4182975.9168288517 2327410.101847257 3492341.1162136607 2341826.542787337 3161568.3533875975 1555476.7996724655 2371064.6321079046 4020587.9291427983 2255702.9676103503 2475499.94444674 3880113.670224938 4033430.173010865 2704269.5681770663 1561655.899168934 2074147.4285963797 2063252.2549824023 2325134.953488298 3620947.988611307 1882804.8682118524 2512911.7576285126 2228613.099178815 2514088.1388438577 4110426.4646122926 1574317.3824305271 2912933.747005561 1639751.1483371835 3823858.681276154 1697096.6219303296 1998742.3155194484 2816804.1647634483 2296827.5506774653 2254355.313361319 2018630.0998911257 2022368.4621393685 2419419.8173271813 2251579.6381790023 2419317.482061831 2247629.893016251 3279780.9008853505 3279896.700851104 3286814.4321269826 3555561.652268434 2332988.1534486213 2986707.2422054554 2352941.085231077 2701301.3314653137 3493955.4844396133 2271433.5241098898 2529637.713895693 3205685.267666612 2456944.0557346256 2568720.2024618704 2449039.517387262 2175097.0167885134 2186699.293436544 2237278.3104979345 2886807.353704223 2244902.512888263 3291652.851173401 2102330.8379335473 2101983.724997703 2090763.58977849 2090987.2608603656 2067998.5709153854 2071317.640733708 3130409.646682149 3556071.7792478506 3450806.343289643 1257291.498512091 3354690.5291460915 3193298.3333656914 1274413.3171016916 1572359.2720658265 2307868.0088453437 1572587.2755276752 2531357.427330432 3325085.082245798 2967866.9420550605 2985706.939413618 2801827.3516343567 1265786.8786157833 2340534.105124452 3248135.1630213764 2971456.313101871 3038979.659815782 2880123.852171172 3021431.1034374633 3398805.8652011366 2321781.7277482636 3181610.6979787564 2434503.479490004 3445475.83875636 3161884.530487758 3165969.9202435855 3671959.7746226946 2770809.7762204288 524392.2516812494 400894.74864282855 4870691.277772674 5167490.693791197 3610098.675849579 413410.0191095529 544951.6597354969 555301.5184869232 395254.9468474886 4843338.437375173 3926317.654587526 3940467.4453285662
VECTORS principal_stress_1 float
-46043.815204785715 -500121.2611729145 0.0
-119558.79470327303 -563608.3717435173 0.0
-72483.01722842014 370598.5024753864 0.0
265233.45388988353 292739.0454976541 0.0
-105934.06020254183 -123264.10041191838 0.0
29003.833876391065 209628.6728513946 0.0
818.5131481414805 68436.55815151909 0.0
663.7181870172982 -70370.71186690894 0.0
2700.7562635188874 -48176.8784512791 0.0
24691.607237041346 139986.81520559007 0.0
4105.2678806288695 35390.35068182171 0.0
-1505.0635329748359 19243.26361766543 0.0
-1500.2334795731208 -18858.5195827706 0.0
24909.83746938912 -181414.15532363602 0.0
-9245.213559020525 -283922.8760442413 0.0
31657.291427558153 193757.32684088594 0.0
-21566.19484191207 701259.7532967135 0.0
25155.3834366443 160162.36883766137 0.0
8741.665195220136 46980.91808722287 0.0
19516.24824006846 -190293.91622460948 0.0
9694.373222348893 -193189.60581203748 0.0
-18616.03237415738 -491671.40171126655 0.0
8537.666485655061 90804.95900065328 0.0
30298.244510971952 361606.38755084266 0.0
-5004.598468417833 780942.8146633325 0.0
-31840.346290634978 -588390.860079803 0.0
11327.34329957662 249199.7945836149 0.0
23650.87030693438 193769.21660906353 0.0
1427.6432397712763 37765.73759403357 0.0
2590.466305192849 -56471.479736429115 0.0
22193.01134828265 -163771.8355017129 0.0
-7951.103556819165 152096.56340975623 0.0
24466.76750625787 -140849.0718189463 0.0
5675.934275602187 -51811.19710987762 0.0
3972.848567559856 -34421.47265106335 0.0
5879.349521119521 53590.879702529775 0.0
-5097.916940678029 -243503.57545745082 0.0
23280.449570097127 -190451.02507837245 0.0
-46069.45921164067 255373.15280633137 0.0
33375.09950792925 293175.3271229494 0.0
-44755.82628304005 718895.8390087491 0.0
15533.685232821143 134668.95407133913 0.0
-231.1385940830122 -436160.7798638253 0.0
-51341.63492767894 -357604.71965540375 0.0
10.584976372053374 -801535.2754926631 0.0
7676.995625149417 -83483.5882741828 0.0
-31797.711479051304 -429620.6429089976 0.0
-31823.865385246314 430439.9460061398 0.0
98344.64908761901 -472703.018339046 0.0
-11319.003867946692 -126651.70177483681 0.0
98328.34392445588 472628.08638488274 0.0
-11349.612695414256 124526.24741689871 0.0
4923.504301776141 -111418.74117165299 0.0
4926.894017578551 111513.02099975497 0.0
-19239.83770192097 -383820.16542057967 0.0
-3116.0609970416667 -732368.009301562 0.0
24658.080012436876 -160396.44478148306 0.0
13295.664740445105 -330228.9212229728 0.0
13082.925535079845 223375.39343327077 0.0
13383.989809085246 -364252.1591043135 0.0
-5939.13634333176 176173.325637299 0.0
312.9386556627412 5614.418001641199 0.0
69000.67749653787 247806.600639558 0.0
-42501.38151723529 633000.0087908471 0.0
69322.117084523 -397059.94777894113 0.0
18071.926615540124 273837.75321016164 0.0
66733.18369782245 377976.7965186872 0.0
-6547.917475679172 -139591.0583200362 0.0
-6171.970762043657 138080.88891659977 0.0
107.64856536876164 5802.044421615066 0.0
12832.138382432811 212950.38319018958 0.0
154.82675039964786 -7936.496463959875 0.0
-38325.72273957084 -466754.0853441682 0.0
-3954.7067225381916 40018.47197846851 0.0
-3876.3530576802527 -39070.14636224619 0.0
8472.071027599246 -56883.93694022745 0.0
8448.338409773043 56647.350246587084 0.0
-4576.414777355226 -134280.51158912896 0.0
-4276.738646249272 130192.60563832807 0.0
29289.40546554931 336123.47914463154 0.0
-8411.193215663117 -176661.48344174447 0.0
6901.191343183352 66658.51570538188 0.0
193007.96712712414 -227418.08685377127 0.0
-16990.10188928095 87059.53051914305 0.0
-2871.6275256827184 175796.85316060233 0.0
189423.55228211303 -220353.53762253196 0.0
-411.21189762086436 39103.648521187264 0.0
72974.33291228517 220494.07092092757 0.0
-409.54932942731966 -38769.664364769924 0.0
16416.411323462307 -265792.92326067446 0.0
-11907.206895001624 56786.55136472913 0.0
501.8940422645065 -5402.517081142243 0.0
14552.605941847036 217966.2292604317 0.0
-101126.62151535346 -491635.66577535507 0.0
197229.29246339045 233211.92475865007 0.0
72698.87698315154 -237040.76581143646 0.0
-16603.79894851802 -78505.93280325044 0.0
-370.80748606655845 -4033.3752339607454 0.0
2316.9605313030133 -24112.654363890997 0.0
11015.357960554478 -197390.6600145339 0.0
14557.598484483035 -336758.5720355804 0.0
519.6577790839357 169133.58141321014 0.0
73269.71557058027 -234953.37832849022 0.0
16486.838220657188 163065.22018392093 0.0
61604.01230497973 -363250.60187696054 0.0
374.46853929478215 207602.26192306823 0.0
17795.099477479875 -178462.9767354887 0.0
18794.152804177666 -188195.58436971364 0.0
-10008.182274131474 -724609.1357138015 0.0
876.1842034413621 -360206.1038327211 0.0
-64811.00849262249 74244.13511787092 0.0
6494.646790963162 -208286.5444135132 0.0
-76394.00308646828 513312.1420236396 0.0
-42344.735319808315 -430445.9249215058 0.0
-146484.4273464758 -648670.878976782 0.0
9786.914039958108 209067.26736533 0.0
-67935.50848096641 -77845.41133314483 0.0
-64395.33594241662 75563.10767445299 0.0
13277.965651742414 -199832.30559842067 0.0
-90445.33237321436 536574.3393391066 0.0
-13991.330859692567 338256.54129850736 0.0
-16676.733092082482 420335.5598329032 0.0
VECTORS principal_stress_2 float
500121.2611729145 -46043.81520478575 0.0
563608.3717435173 -119558.79470327304 0.0
-370598.5024753864 -72483.01722842011 0.0
-292739.04549765406 265233.4538898836 0.0
123264.10041191839 -105934.06020254182 0.0
-209628.6728513946 29003.83387639108 0.0
-68436.55815151909 818.5131481415001 0.0
70370.71186690894 663.7181870172939 0.0
48176.8784512791 2700.756263518884 0.0
-139986.81520559007 24691.607237041353 0.0
-35390.35068182171 4105.267880628864 0.0
-19243.26361766543 -1505.0635329748347 0.0
18858.519582770597 -1500.2334795731265 0.0
181414.15532363602 24909.83746938911 0.0
283922.8760442413 -9245.213559020543 0.0
-193757.32684088594 31657.291427558164 0.0
-701259.7532967135 -21566.194841912027 0.0
-160162.36883766134 25155.383436644308 0.0
-46980.91808722287 8741.665195220128 0.0
190293.91622460948 19516.24824006845 0.0
193189.60581203748 9694.373222348882 0.0
491671.40171126655 -18616.032374157414 0.0
-90804.95900065328 8537.666485655069 0.0
-361606.38755084266 30298.244510972057 0.0
-780942.8146633325 -5004.598468417786 0.0
588390.860079803 -31840.346290635014 0.0
-249199.7945836149 11327.343299576636 0.0
-193769.21660906353 23650.87030693439 0.0
-37765.73759403357 1427.6432397712786 0.0
56471.479736429115 2590.4663051928455 0.0
163771.8355017129 22193.011348282642 0.0
-152096.56340975623 -7951.1035568191555 0.0
140849.0718189463 24466.767506257864 0.0
51811.19710987763 5675.934275602184 0.0
34421.47265106335 3972.848567559854 0.0
-53590.87970252977 5879.349521119525 0.0
243503.57545745082 -5097.916940678044 0.0
190451.02507837245 23280.449570097117 0.0
-255373.15280633137 -46069.45921164066 0.0
-293175.3271229494 33375.09950792927 0.0
-718895.8390087491 -44755.826283040005 0.0
-134668.95407133913 15533.685232821152 0.0
436160.7798638253 -231.1385940829421 0.0
357604.7196554037 -51341.634927679035 0.0
801535.2754926631 10.584976372004293 0.0
83483.5882741828 7676.995625149412 0.0
429620.6429089976 -31797.71147905124 0.0
-430439.9460061398 -31823.86538524629 0.0
472703.018339046 98344.64908761898 0.0
126651.70177483681 -11319.003867946729 0.0
-472628.08638488274 98328.34392445591 0.0
-124526.24741689871 -11349.61269541425 0.0
111418.74117165299 4923.504301776134 0.0
-111513.02099975497 4926.894017578583 0.0
383820.16542057967 -19239.837701920995 0.0
732368.0093015621 -3116.0609970415485 0.0
160396.44478148306 24658.08001243687 0.0
330228.9212229728 13295.664740445085 0.0
-223375.39343327074 13082.925535079909 0.0
364252.1591043135 13383.989809085222 0.0
-176173.325637299 -5939.136343331751 0.0
-5614.418001641199 312.9386556627428 0.0
-247806.60063955802 69000.67749653783 0.0
-633000.0087908471 -42501.381517235255 0.0
397059.94777894113 69322.11708452296 0.0
-273837.75321016164 18071.926615540146 0.0
-377976.7965186872 66733.18369782255 0.0
139591.0583200362 -6547.91747567918 0.0
-138080.88891659977 -6171.970762043648 0.0
-5802.044421615066 107.64856536876198 0.0
-212950.38319018958 12832.138382432826 0.0
7936.496463959875 154.82675039964738 0.0
466754.0853441682 -38325.722739570876 0.0
-40018.47197846851 -3954.7067225381893 0.0
39070.14636224619 -3876.3530576802555 0.0
56883.93694022745 8472.071027599244 0.0
-56647.35024658708 8448.338409773058 0.0
134280.51158912896 -4576.414777355205 0.0
-130192.60563832807 -4276.738646249264 0.0
-336123.47914463154 29289.40546554926 0.0
176661.48344174447 -8411.193215663088 0.0
-66658.51570538188 6901.191343183371 0.0
227418.0868537713 193007.96712712414 0.0
-87059.53051914305 -16990.101889280944 0.0
-175796.85316060233 -2871.6275256827075 0.0
220353.53762253196 189423.55228211297 0.0
-39103.648521187264 -411.21189762086203 0.0
-220494.0709209276 72974.33291228514 0.0
38769.664364769924 -409.5493294273307 0.0
265792.92326067446 16416.41132346229 0.0
-56786.55136472913 -11907.206895001622 0.0
5402.517081142243 501.8940422645062 0.0
-217966.2292604317 14552.605941847052 0.0
491635.66577535507 -101126.62151535337 0.0
-233211.92475865007 197229.29246339045 0.0
237040.76581143646 72698.87698315152 0.0
78505.93280325044 -16603.79894851804 0.0
4033.3752339607454 -370.80748606655783 0.0
24112.654363890997 2316.960531303012 0.0
197390.6600145339 11015.357960554466 0.0
336758.5720355804 14557.598484483015 0.0
-169133.58141321014 519.6577790839835 0.0
234953.37832849022 73269.71557058026 0.0
-163065.22018392093 16486.8382206572 0.0
363250.6018769606 61604.01230497972 0.0
-207602.26192306823 374.4685392947949 0.0
178462.9767354887 17795.099477479864 0.0
188195.58436971364 18794.152804177655 0.0
724609.1357138015 -10008.182274131357 0.0
360206.1038327211 876.1842034413401 0.0
-74244.13511787092 -64811.00849262247 0.0
208286.5444135132 6494.646790963149 0.0
-513312.1420236396 -76394.00308646825 0.0
430445.9249215058 -42344.73531980843 0.0
648670.8789767819 -146484.42734647583 0.0
-209067.26736533 9786.914039958121 0.0
77845.41133314482 -67935.50848096643 0.0
-75563.107674453 -64395.33594241662 0.0
199832.30559842067 13277.965651742403 0.0
-536574.3393391066 -90445.33237321433 0.0
-338256.54129850736 -13991.330859692547 0.0
-420335.5598329032 -16676.733092082457 0.0
POINT_DATA 79
VECTORS displacements float
0.0 0.0 0.0
-9.829003432357688e-06 2.2036418445718862e-08 0.0
-1.4170641051818428e-05 -2.1851357168821792e-07 0.0
-2.6577116123642213e-05 1.2366750659706605e-08 0.0
-3.103423071068803e-05 2.4824520660131276e-07 0.0
-4.319709479401539e-05 -2.41615350182301e-06 0.0
-4.2950213845163e-05 2.0349092239014462e-06 0.0
-3.0739285954805236e-05 5.883159465078092e-08 0.0
-2.6463574164881215e-05 3.292175070247441e-07 0.0
-1.4234323635853766e-05 1.5375361972003982e-07 0.0
-9.77186808528527e-06 -8.937540649856414e-08 0.0
0.0 0.0 0.0
-3.4362627148706335e-06 -9.669342249557406e-07 0.0
-6.511864531396749e-06 -1.4076337719675912e-06 0.0
-9.108246449191207e-06 -1.7077583426298508e-06 0.0
-1.103518771928663e-05 1.775525435523249e-07 0.0
-2.021310102945436e-05 -5.530087072568624e-07 0.0
-2.9772884728560238e-05 4.055918669450077e-07 0.0
-3.178323958276982e-05 -1.572566375007616e-06 0.0
-3.4552013529167645e-05 -1.2323114194868469e-06 0.0
-3.831863715189507e-05 -1.0635374100561378e-06 0.0
-3.969193041388832e-05 -1.1195865886436022e-06 0.0
-3.9609372480503154e-05 7.382120145910013e-07 0.0
-3.8071883279133525e-05 8.36170434877814e-07 0.0
-3.430625374845051e-05 1.1537819998970582e-06 0.0
-3.1517055615853756e-05 1.6568787805074901e-06 0.0
-2.9567757604202378e-05 -9.118791424459584e-08 0.0
-2.044144890916137e-05 6.893161259544421e-07 0.0
-1.1052252823286925e-05 -2.6766941023629307e-07 0.0
-9.03803778085258e-06 1.7447155419849402e-06 0.0
-6.542941127215264e-06 1.3912723821264274e-06 0.0
-3.4427481461949786e-06 9.657854506500225e-07 0.0
0.0 0.0 0.0
0.0 0.0 0.0
-1.7902160880662236e-05 2.8546125068761453e-08 0.0
-1.4861213800196855e-05 1.5546879047817446e-07 0.0
-8.357794683765322e-06 -9.132197422010941e-07 0.0
-3.231855653527947e-05 7.886731111854473e-07 0.0
-4.8455058886583434e-06 6.100059481841313e-07 0.0
-2.2852508767830322e-05 1.3776502628739355e-07 0.0
-3.571631074765548e-05 -4.935470686781934e-07 0.0
-1.2519625760337956e-05 6.090198782644102e-07 0.0
-1.2214669464945728e-05 1.8632702098962305e-07 0.0
-1.0232631831051415e-05 1.0024537802389166e-06 0.0
-1.6421444608373126e-05 4.367580265260267e-08 0.0
-1.1200418874962149e-05 -8.904558210745254e-07 0.0
-2.9411745819684674e-05 9.277203232712997e-07 0.0
-2.7629115681753564e-05 5.704071378058761e-07 0.0
-2.4935395338595374e-05 9.375434651033717e-08 0.0
-2.6673213811693235e-05 7.386490991002171e-08 0.0
-2.959920029174435e-05 -7.193053562437246e-07 0.0
-1.314926707978623e-05 -5.065994233193545e-07 0.0
-4.908763091704468e-06 -6.135793525759288e-07 0.0
-1.9822085000239033e-05 -9.101969583436734e-08 0.0
-2.1632577834754826e-05 2.289499299023461e-07 0.0
-3.560196774626752e-05 3.4107688705107727e-07 0.0
-3.2434576699848935e-05 -8.102401125530229e-07 0.0
-2.6947509531363133e-06 2.856107886763996e-09 0.0
-6.2720787487810525e-06 2.5404515881087946e-08 0.0
-2.7702896601800058e-05 -4.141888876271374e-07 0.0
-3.714070147270283e-05 -1.2438143345761788e-07 0.0
-3.406035987272957e-05 -5.000605939033018e-08 0.0
-2.9439274894519786e-05 3.891190117590064e-07 0.0
-1.0497671223019616e-05 -1.0518725256343055e-06 0.0
-3.0303030680062502e-05 -9.286753323790794e-07 0.0
-3.0152890202568702e-05 1.0279239083443261e-06 0.0
-1.092688393863081e-05 1.0085546541560777e-06 0.0
-2.5462061563957296e-05 -3.263692616763492e-08 0.0
-9.42121808619399e-06 1.577964599087773e-07 0.0
-1.4061277330644643e-05 -1.0161494297014863e-07 0.0
-7.500505541054615e-06 9.981203717171454e-07 0.0
-2.2860118890391037e-06 3.402552275390675e-07 0.0
-2.290245655393858e-06 -3.405123361050329e-07 0.0
-3.8160412494245244e-05 3.390717858698479e-07 0.0
-3.8293494813205e-05 -6.094615911195325e-07 0.0
-2.935586165825966e-05 -3.0710613318518713e-07 0.0
-1.1351321187265966e-05 -4.6728810301934724e-07 0.0
-3.150748699248857e-05 -2.741601326310509e-08 0.0
-2.4273531038317272e-05 6.663560667291946e-08 0.0