# vtk DataFile Version 2.0
Really cool data
ASCII
DATASET POLYDATA
POINTS 79 float
0.0 0.0 0
0.125 0.0 0
0.125 0.025 0
0.175 0.025 0
0.175 0.0 0
0.3 0.0 0
0.3 0.1 0
0.175 0.1 0
0.175 0.07500000000000001 0
0.125 0.07500000000000001 0
0.125 0.1 0
0.0 0.1 0
0.03125000004370471 0.0 0
0.0625000001307804 0.0 0
0.09374999998068687 0.0 0
0.125 0.01250000001946666 0
0.1500000000542101 0.025 0
0.175 0.01249999996954493 0
0.2062499999498556 0.0 0
0.2375000000298155 0.0 0
0.2687499999363031 0.0 0
0.3 0.0333333333833971 0
0.3 0.06666666665533266 0
0.2687499999857699 0.1 0
0.2374999999335926 0.1 0
0.2062499998895469 0.09999999999999999 0
0.175 0.08749999992410584 0
0.1499999998970008 0.07500000000000001 0
0.125 0.08749999998373698 0
0.09374999993189857 0.09999999999999999 0
0.0624999998448236 0.1 0
0.03124999993393145 0.09999999999999999 0
0.0 0.0333333333833971 0
0.0 0.06666666665533266 0
0.1378547570355081 0.05872292154631246 0
0.1205274442651983 0.05862678463973545 0
0.07803612283544163 0.02746894678379668 0
0.2226162665830209 0.07211648701237751 0
0.04657850476242389 0.07368042341935963 0
0.1622706517654054 0.03938231233726987 0
0.252980499236 0.02602455144963511 0
0.109560885362774 0.06910636912149352 0
0.1035428582731431 0.05536550924987886 0
0.09446340455586462 0.07339030772034122 0
0.1297704041436086 0.04158982110107774 0
0.1132865766637887 0.01593857993116043 0
0.186753216184187 0.08404751813713929 0
0.1877801982831638 0.06703918828045416 0
0.1733905086174061 0.0598112640259766 0
0.1856181996521408 0.04946247546871016 0
0.1868846907912053 0.01597385514967477 0
0.1131718100429242 0.03296260135460721 0
0.04701194323136633 0.02605904576954292 0
0.1472836510273114 0.04403708240920157 0
0.156522442137825 0.05549035706134775 0
0.2530435320912519 0.07390570197147181 0
0.2225760006839336 0.02724783760424724 0
0.02677278634880424 0.04999031169197893 0
0.0585714362847925 0.05091877290869405 0
0.1878893412851503 0.03238808265173287 0
0.2732128773237721 0.04999740635679935 0
0.2405675714137089 0.04967440931258933 0
0.2028012289770727 0.05786760313150688 0
0.09855331488684695 0.02421843491374789 0
0.2022125407954209 0.02420632934680947 0
0.2019215881935539 0.07550588152163751 0
0.1106342982879173 0.08513466862109817 0
0.1763847799930755 0.03897617889497943 0
0.08376496491711016 0.05310692347303086 0
0.1153646765920849 0.04606322378801621 0
0.07093261472684372 0.07688653339035037 0
0.02248813842537181 0.07689914103870149 0
0.02248813853232256 0.02310085904459931 0
0.2775118614781718 0.07689914096938054 0
0.2775118615121814 0.02310085899762184 0
0.2019844792914555 0.04127381659182398 0
0.09873895792459182 0.03986427326051295 0
0.2189762525642749 0.04875447148100505 0
0.1708373164331706 0.04862451755765676 0
POLYGONS 122 488
3 27 9 34
3 34 9 35
3 2 44 51
3 9 28 66
3 10 29 66
3 28 10 66
3 38 57 58
3 57 52 58
3 13 36 52
3 18 19 56
3 19 40 56
3 60 55 61
3 40 60 61
3 13 14 36
3 16 39 53
3 43 29 70
3 34 35 44
3 18 56 64
3 41 9 66
3 14 45 63
3 52 36 58
3 34 53 54
3 56 40 61
3 68 43 70
3 34 44 53
3 53 39 54
3 58 68 70
3 50 18 64
3 30 31 38
3 12 13 52
3 36 14 63
3 51 44 69
3 24 25 37
3 23 24 55
3 24 37 55
3 19 20 40
3 27 34 54
3 25 46 65
3 47 8 48
3 29 43 66
3 48 54 78
3 29 30 70
3 33 32 57
3 35 9 41
3 21 22 60
3 55 37 61
3 11 33 71
3 32 0 72
3 22 6 73
3 31 11 71
3 5 21 74
3 0 12 72
3 6 23 73
3 20 5 74
3 44 35 69
3 54 39 78
3 37 25 65
3 68 36 76
3 38 58 70
3 58 36 68
3 47 48 49
3 30 38 70
3 43 41 66
3 49 48 78
3 36 63 76
3 56 61 77
3 64 56 75
3 57 38 71
3 52 57 72
3 38 31 71
3 75 56 77
3 12 52 72
3 67 49 78
3 55 60 73
3 60 40 74
3 23 55 73
3 40 20 74
3 33 57 71
3 57 32 72
3 42 43 68
3 59 49 67
3 35 41 42
3 15 2 45
3 45 2 51
3 35 42 69
3 26 8 46
3 60 22 73
3 59 50 64
3 21 60 74
3 61 37 77
3 46 8 47
3 47 49 62
3 42 41 43
3 3 59 67
3 3 17 50
3 45 51 63
3 3 50 59
3 49 59 75
3 51 69 76
3 37 62 77
3 42 68 76
3 69 42 76
3 46 47 65
3 59 64 75
3 62 37 65
3 62 49 75
3 47 62 65
3 63 51 76
3 39 67 78
3 62 75 77
3 14 1 45
3 1 15 45
3 2 16 44
3 16 3 39
3 39 3 67
3 17 4 50
3 4 18 50
3 25 7 46
3 7 26 46
3 8 27 48
3 44 16 53
3 48 27 54
CELL_DATA 122
SCALARS mises double 1
LOOKUP_TABLE default
15070674.766186649 10500461.843992937 8941895.233624876 3377021.9274103446 1609825.3379399949 1848421.0283187188 7089556.5606000945 7080779.647402328 6962169.495052535 5605432.433918086 6692128.114172583 5851072.8688028 5872924.791016686 5331147.189999323 12548927.561994782 6982229.271233002 10477023.511866888 7025478.641869546 9484703.915676981 4666431.052752626 7113194.209378029 12061763.57530797 6767108.324948094 7426499.295538302 11640341.044667631 12100290.220333245 8112808.419760071 4684966.916856321 6222442.0567674395 6189757.044178348 6975405.709404597 10862844.273081725 5648415.7022568025 7538735.940995337 6685840.000104793 7542263.747218702 12331279.272085438 4722952.928154897 8738802.286305727 4919252.702789498 11471576.37764159 5091289.142384551 5996226.943782933 8450411.686848879 6890482.652121734 6763066.504309142 6055889.909912795 6067105.775752155 7258260.844190966 6754738.392196686 7257951.053998288 6742890.212071561 9839342.972460587 9839689.832787892 9860443.014455317 10666684.93431509 6998965.425528791 8960121.980682012 7058822.8880431745 8103904.228411958 10481866.650398029 6814300.236964439 7588911.3154533105 9617056.160592113 7370833.311359275 7706160.190912193 7347117.397841895 6525290.778125404 6560098.139855181 6711834.820009106 8660421.686187118 6734707.655942804 9874958.098457962 6306993.103757765 6305950.582526421 6272291.685394972 6272960.865296732 6203995.515123358 6213953.112900033 9391228.388900915 10668215.05914943 10352418.399291605 3771881.483487366 10064072.763443148 9579895.095308622 3823246.9499369776 4717077.878497195 6923601.820372925 4717761.763993462 7594072.671384466 9975256.520042194 8903601.386483107 8957120.402773935 8405480.929615332 3797353.6435960126 7021604.348623159 9744404.209456583 8914368.38575358 9116939.560963284 8640371.90283576 9064293.583235892 10196417.576726956 6965347.254198846 9544831.468863793 7303511.543382807 10336427.505135141 9485654.209296873 9497910.38035893 11015879.250388945 8312429.344111913 1573181.4791799756 1202684.46180888 14612074.682635976 15502471.515007397 10830294.793244943 1240229.73313762 1634850.2651156348 1665909.2767327495 1185765.301658486 14530016.272935646 11778953.200724766 11821402.560456568
VECTORS principal_stress_1 float
15872768.848010182 -1461331.265765521 0.0
11591870.048658285 -2458994.721968462 0.0
9719540.681707231 1900983.4901621153 0.0
5754210.859989065 -5213548.531631758 0.0
2033276.0115114886 -1747412.1231733374 0.0
1504194.0216120533 -208117.49140644877 0.0
6985729.6414217735 -83550.54250691652 0.0
6973520.673208199 65772.42684574956 0.0
6911338.223607284 387443.948149971 0.0
5577813.382227892 -983843.9218237661 0.0
6730615.043254412 -780748.9109776643 0.0
5914981.268312892 462625.40398783155 0.0
5937632.776611627 -472350.7294295658 0.0
5153947.509037134 707684.5494600225 0.0
12965039.379996175 -422172.9490035955 0.0
6883184.898838628 -1124618.0665531359 0.0
11376053.837517409 349853.5206656441 0.0
6964083.706491415 -1093791.2394343102 0.0
9749165.42273847 -1814011.805818128 0.0
4412637.192427318 452553.21110278246 0.0
6825741.175158062 342519.8896855678 0.0
12745456.780920517 -482578.06988818233 0.0
6690215.772741132 -629027.6611910744 0.0
6887653.13205503 -577102.0808431492 0.0
12633891.62102456 80963.1044290924 0.0
12913300.670987042 -698793.9361661104 0.0
7732163.882963504 -351464.4741070515 0.0
4449767.034478212 -543124.7794165672 0.0
6174154.06691777 -233399.10396279566 0.0
6116867.665812085 280593.667025659 0.0
6858381.162786571 929391.3725170296 0.0
11111590.62590347 580877.0807629618 0.0
5615002.548367731 975377.11909494 0.0
7553102.580171904 827444.9581047129 0.0
6724748.400842248 776155.2598959504 0.0
7554285.636347136 -828765.7505342452 0.0
12685212.79076115 -265573.76441246277 0.0
4494469.56704494 549397.2639783405 0.0
9341502.398101766 1685212.2432429895 0.0
4500478.896709353 -512334.8287354948 0.0
12428136.233124448 773730.3182038969 0.0
4952997.374902346 -571314.3219332102 0.0
6542420.517202841 -3467.0835849062064 0.0
9074872.228157764 -1302887.6615565203 0.0
5365965.832529892 70.86228553587881 0.0
6694725.297188697 615634.4963191899 0.0
6618530.577645555 -489860.36680697935 0.0
6630764.066598468 490234.5728241232 0.0
6850352.629857363 1425198.2732772897 0.0
6985994.766726233 -624346.1451991338 0.0
6850151.411405713 -1425146.0362150196 0.0
6973167.116415136 635550.7186107541 0.0
9688141.461884689 428111.15672469063 0.0
9688335.107517414 -428052.2566205825 0.0
10405919.61731842 -521619.81733571517 0.0
11594287.054782478 -49331.08112462144 0.0
6928498.948925736 1065132.5949365404 0.0
8440478.611023558 339830.2409294282 0.0
6727455.342228837 -394021.9015629789 0.0
7515162.133775402 276135.22912096465 0.0
10747127.569215827 362306.0171104858 0.0
6827112.122767823 -380532.281196948 0.0
7867692.51563854 -2190724.9948645555 0.0
10454717.915825667 701958.8445889357 0.0
6981314.106517922 1218857.4460935222 0.0
7301302.82444734 -481849.5890154959 0.0
6995883.506597621 -1235148.7802274905 0.0
6737541.860640479 -316043.65367918037 0.0
6769246.074166835 302573.29003777826 0.0
6705434.283588043 -124409.66120728858 0.0
8358181.257055561 -503654.1231306409 0.0
6725347.927554265 131199.4240353643 0.0
10552171.895910282 -866451.1507912052 0.0
6425969.419839249 635027.3562952789 0.0
6424053.922037616 -637363.9052311348 0.0
6330088.044534479 942778.5489004566 0.0
6331513.668881583 -944276.6499751417 0.0
6402091.462854467 -218189.71070228683 0.0
6406091.522769989 210435.75441564704 0.0
8928928.273239873 -778056.3298739315 0.0
10945684.56358493 -521145.1072886551 0.0
10365173.230288114 -1073111.859910255 0.0
6106739.219758733 5182742.229904421 0.0
10559549.053409906 2060748.6997973889 0.0
9835038.63333284 160654.56888370324 0.0
6180043.185833695 5312579.712347568 0.0
4775141.219859473 50215.13226221326 0.0
7440951.343420119 -2462644.2708910047 0.0
4775347.741012683 -50445.122421311025 0.0
7197351.741586132 444536.6158738525 0.0
10485714.71369768 2198682.1093613915 0.0
8972536.846519193 833549.0142151853 0.0
8656491.598358216 -577954.2615259731 0.0
9299311.6143398 -1912814.776148466 0.0
6153460.400747836 -5204033.379926764 0.0
7403940.260877347 2270740.816979581 0.0
10278857.214305442 -2173951.3500791723 0.0
8995599.245856121 -827008.4850852716 0.0
9165738.281860834 880726.5064573948 0.0
8358688.337001427 466455.4245170764 0.0
8536527.99830414 369022.0750720095 0.0
9933347.557413382 -30519.907917902317 0.0
7370682.751033062 2298531.8728813254 0.0
9395876.374607192 -949977.5215997925 0.0
6954081.268541897 1179349.203617261 0.0
10010978.769716013 -18057.59032717184 0.0
9308883.018160993 928217.7309970561 0.0
9306148.381010443 929358.5461998098 0.0
11942184.098033799 -164943.48375369527 0.0
7719330.383622375 18776.90375404548 0.0
2106249.7030843045 1838639.0679540976 0.0
763590.511817526 23809.75055853325 0.0
15591035.721237345 2320345.7185210846 0.0
16238457.998414904 -1597443.8742104396 0.0
12060514.831097126 -2723534.6395135545 0.0
805868.7895922634 -37724.549952822796 0.0
2187044.6786717186 -1908628.778134475 0.0
2247689.657570083 1915494.6778671853 0.0
775014.4730073593 51496.255930080355 0.0
15608169.866703255 2630923.6350555327 0.0
12270996.325864919 507566.1476173205 0.0
12416901.731313027 492638.20573742286 0.0
VECTORS principal_stress_2 float
1461331.265765521 15872768.848010182 0.0
2458994.7219684646 11591870.048658285 0.0
-1900983.4901621155 9719540.681707231 0.0
5213548.531631759 5754210.859989064 0.0
1747412.123173338 2033276.011511488 0.0
208117.49140644877 1504194.0216120533 0.0
83550.54250691718 6985729.6414217735 0.0
-65772.42684574905 6973520.673208199 0.0
-387443.94814997097 6911338.223607284 0.0
983843.9218237665 5577813.382227892 0.0
780748.9109776643 6730615.043254412 0.0
-462625.40398783167 5914981.268312892 0.0
472350.729429566 5937632.776611627 0.0
-707684.549460022 5153947.509037134 0.0
422172.94900359603 12965039.379996175 0.0
1124618.066553136 6883184.898838628 0.0
-349853.5206656432 11376053.837517409 0.0
1093791.2394343112 6964083.706491415 0.0
1814011.805818128 9749165.42273847 0.0
-452553.21110278263 4412637.192427318 0.0
-342519.8896855673 6825741.175158062 0.0
482578.06988818216 12745456.780920517 0.0
629027.6611910741 6690215.772741132 0.0
577102.0808431496 6887653.13205503 0.0
-80963.10442909042 12633891.62102456 0.0
698793.9361661127 12913300.670987042 0.0
351464.47410705127 7732163.882963504 0.0
543124.7794165674 4449767.034478212 0.0
233399.10396279665 6174154.06691777 0.0
-280593.66702565824 6116867.665812085 0.0
-929391.3725170301 6858381.162786571 0.0
-580877.0807629614 11111590.62590347 0.0
-975377.1190949397 5615002.548367731 0.0
-827444.9581047124 7553102.580171904 0.0
-776155.2598959502 6724748.400842248 0.0
828765.750534245 7554285.636347136 0.0
265573.76441246376 12685212.79076115 0.0
-549397.2639783398 4494469.56704494 0.0
-1685212.24324299 9341502.398101766 0.0
512334.8287354953 4500478.896709353 0.0
-773730.3182038962 12428136.233124448 0.0
571314.321933211 4952997.374902346 0.0
3467.083584907032 6542420.517202841 0.0
1302887.66155652 9074872.228157764 0.0
-70.8622855353831 5365965.832529892 0.0
-615634.496319189 6694725.297188697 0.0
489860.36680698 6618530.577645555 0.0
-490234.5728241228 6630764.066598468 0.0
-1425198.2732772885 6850352.629857363 0.0
624346.1451991348 6985994.766726233 0.0
1425146.0362150194 6850151.411405713 0.0
-635550.7186107541 6973167.116415136 0.0
-428111.1567246896 9688141.461884689 0.0
428052.2566205828 9688335.107517414 0.0
521619.81733571674 10405919.61731842 0.0
49331.08112462234 11594287.054782478 0.0
-1065132.59493654 6928498.948925736 0.0
-339830.2409294278 8440478.611023558 0.0
394021.90156297927 6727455.342228837 0.0
-276135.22912096384 7515162.133775402 0.0
-362306.0171104862 10747127.569215827 0.0
380532.28119694884 6827112.122767823 0.0
2190724.9948645555 7867692.51563854 0.0
-701958.8445889355 10454717.915825667 0.0
-1218857.446093521 6981314.106517923 0.0
481849.5890154961 7301302.82444734 0.0
1235148.78022749 6995883.506597621 0.0
316043.65367918013 6737541.860640479 0.0
-302573.29003777844 6769246.074166835 0.0
124409.66120728901 6705434.283588043 0.0
503654.1231306406 8358181.257055561 0.0
-131199.42403536398 6725347.927554265 0.0
866451.1507912058 10552171.895910282 0.0
-635027.3562952789 6425969.419839249 0.0
637363.9052311355 6424053.922037616 0.0
-942778.548900457 6330088.044534479 0.0
944276.6499751423 6331513.668881583 0.0
218189.71070228668 6402091.462854467 0.0
-210435.7544156467 6406091.522769989 0.0
778056.3298739317 8928928.273239873 0.0
521145.10728865553 10945684.56358493 0.0
1073111.8599102562 10365173.230288114 0.0
-5182742.229904421 6106739.219758733 0.0
-2060748.6997973877 10559549.053409906 0.0
-160654.56888370318 9835038.63333284 0.0
-5312579.712347569 6180043.185833695 0.0
-50215.13226221274 4775141.219859473 0.0
2462644.2708910056 7440951.343420118 0.0
50445.122421311295 4775347.741012683 0.0
-444536.61587385135 7197351.741586132 0.0
-2198682.1093613906 10485714.71369768 0.0
-833549.014215185 8972536.846519193 0.0
577954.2615259732 8656491.598358216 0.0
1912814.7761484669 9299311.614339799 0.0
5204033.379926765 6153460.400747836 0.0
-2270740.8169795806 7403940.260877347 0.0
2173951.350079173 10278857.214305442 0.0
827008.4850852726 8995599.245856121 0.0
-880726.506457395 9165738.281860834 0.0
-466455.4245170761 8358688.337001427 0.0
-369022.0750720087 8536527.99830414 0.0
30519.907917901917 9933347.557413382 0.0
-2298531.8728813245 7370682.751033062 0.0
949977.5215997933 9395876.374607192 0.0
-1179349.20361726 6954081.268541898 0.0
18057.59032717233 10010978.769716013 0.0
-928217.7309970551 9308883.018160993 0.0
-929358.5461998096 9306148.381010443 0.0
164943.48375369623 11942184.098033799 0.0
-18776.903754044226 7719330.383622375 0.0
-1838639.067954097 2106249.7030843054 0.0
-23809.750558533236 763590.511817526 0.0
-2320345.7185210832 15591035.721237345 0.0
1597443.87421044 16238457.998414904 0.0
2723534.639513554 12060514.831097126 0.0
37724.54995282282 805868.7895922634 0.0
1908628.7781344752 2187044.6786717186 0.0
-1915494.6778671853 2247689.6575700836 0.0
-51496.25593008031 775014.4730073593 0.0
-2630923.6350555336 15608169.866703255 0.0
-507566.14761731884 12270996.325864919 0.0
-492638.205737423 12416901.731313027 0.0
POINT_DATA 79
VECTORS displacements float
0.0 0.0 0.0
2.9487010297073067e-05 -6.61092553371527e-08 0.0
4.25119231554553e-05 6.55540715064654e-07 0.0
7.973134837092667e-05 -3.710025197914325e-08 0.0
9.31026921320641e-05 -7.447356198039477e-07 0.0
0.0001295912843820461 7.248460505468891e-06 0.0
0.00012885064153548905 -6.1047276717044784e-06 0.0
9.221785786441579e-05 -1.7649478395236695e-07 0.0
7.939072249464369e-05 -9.87652521074246e-07 0.0
4.2702970907561304e-05 -4.612608591601214e-07 0.0
2.931560425585582e-05 2.6812621949569305e-07 0.0
0.0 0.0 0.0
1.03087881446119e-05 2.9008026748672237e-06 0.0
1.9535593594190245e-05 4.222901315902774e-06 0.0
2.7324739347573617e-05 5.12327502788956e-06 0.0
3.310556315785989e-05 -5.326576306569727e-07 0.0
6.063930308836311e-05 1.6590261217705962e-06 0.0
8.931865418568072e-05 -1.216775600835039e-06 0.0
9.534971874830946e-05 4.717699125022797e-06 0.0
0.00010365604058750288 3.696934258460475e-06 0.0
0.00011495591145568514 3.1906122301683204e-06 0.0
0.00011907579124166486 3.3587597659306817e-06 0.0
0.00011882811744150946 -2.2146360437731517e-06 0.0
0.00011421564983740065 -2.5085113046335706e-06 0.0
0.00010291876124535163 -3.461345999691217e-06 0.0
9.455116684756137e-05 -4.970636341522504e-06 0.0
8.87032728126072e-05 2.735637427337697e-07 0.0
6.132434672748411e-05 -2.067948377863326e-06 0.0
3.3156758469860776e-05 8.030082307088823e-07 0.0
2.711411334255775e-05 -5.234146625954815e-06 0.0
1.96288233816458e-05 -4.173817146379284e-06 0.0
1.032824443858493e-05 -2.897356351950066e-06 0.0
0.0 0.0 0.0
0.0 0.0 0.0
5.3706482641986724e-05 -8.563837520628703e-08 0.0
4.458364140059055e-05 -4.6640637143451564e-07 0.0
2.5073384051295955e-05 2.7396592266032864e-06 0.0
9.695566960583846e-05 -2.3660193335563893e-06 0.0
1.4536517665975029e-05 -1.8300178445523923e-06 0.0
6.855752630349101e-05 -4.1329507886219104e-07 0.0
0.0001071489322429664 1.480641206034496e-06 0.0
3.755887728101387e-05 -1.8270596347932253e-06 0.0
3.664400839483716e-05 -5.589810629688616e-07 0.0
3.069789549315424e-05 -3.0073613407167438e-06 0.0
4.926433382511938e-05 -1.3102740795779817e-07 0.0
3.360125662488645e-05 2.6713674632235834e-06 0.0
8.823523745905411e-05 -2.783160969813929e-06 0.0
8.288734704526073e-05 -1.7112214134176564e-06 0.0
7.480618601578615e-05 -2.812630395310227e-07 0.0
8.001964143507967e-05 -2.2159472973008098e-07 0.0
8.879760087523307e-05 2.1579160687311516e-06 0.0
3.944780123935872e-05 1.519798269958073e-06 0.0
1.4726289275113406e-05 1.8407380577277884e-06 0.0
5.946625500071711e-05 2.730590875031064e-07 0.0
6.48977335042645e-05 -6.86849789707037e-07 0.0
0.00010680590323880255 -1.0232306611533163e-06 0.0
9.730373009954675e-05 2.4307203376590165e-06 0.0
8.084252859408942e-06 -8.568323660291026e-09 0.0
1.8816236246343168e-05 -7.621354764326109e-08 0.0
8.31086898054002e-05 1.2425666628813856e-06 0.0
0.00011142210441810847 3.7314430037274706e-07 0.0
0.00010218107961818871 1.5001817817091656e-07 0.0
8.831782468355943e-05 -1.1673570352770608e-06 0.0
3.149301366905885e-05 3.1556175769029216e-06 0.0
9.09090920401875e-05 2.7860259971371997e-06 0.0
9.045867060770617e-05 -3.0837717250330193e-06 0.0
3.278065181589243e-05 -3.0256639624682276e-06 0.0
7.638618469187187e-05 9.791077850289027e-08 0.0
2.8263654258581967e-05 -4.733893797263268e-07 0.0
4.218383199193394e-05 3.0484482891045376e-07 0.0
2.2501516623163842e-05 -2.9943611151514314e-06 0.0
6.85803566711731e-06 -1.020765682617202e-06 0.0
6.870736966181573e-06 1.0215370083151e-06 0.0
0.00011448123748273579 -1.0172153576096548e-06 0.0
0.00011488048443961495 1.8283847733584869e-06 0.0
8.806758497477897e-05 9.213183995555221e-07 0.0
3.40539635617979e-05 1.401864309058047e-06 0.0
9.452246097746571e-05 8.224803978925719e-08 0.0
7.28205931149518e-05 -1.9990682001876922e-07 0.0