# vtk DataFile Version 2.0
Really cool data
ASCII
DATASET POLYDATA
POINTS 79 float
0.0 0.0 0
0.125 0.0 0
0.125 0.025 0
0.175 0.025 0
0.175 0.0 0
0.3 0.0 0
0.3 0.1 0
0.175 0.1 0
0.175 0.07500000000000001 0
0.125 0.07500000000000001 0
0.125 0.1 0
0.0 0.1 0
0.03125000004370471 0.0 0
0.0625000001307804 0.0 0
0.09374999998068687 0.0 0
0.125 0.01250000001946666 0
0.1500000000542101 0.025 0
0.175 0.01249999996954493 0
0.2062499999498556 0.0 0
0.2375000000298155 0.0 0
0.2687499999363031 0.0 0
0.3 0.0333333333833971 0
0.3 0.06666666665533266 0
0.2687499999857699 0.1 0
0.2374999999335926 0.1 0
0.2062499998895469 0.09999999999999999 0
0.175 0.08749999992410584 0
0.1499999998970008 0.07500000000000001 0
0.125 0.08749999998373698 0
0.09374999993189857 0.09999999999999999 0
0.0624999998448236 0.1 0
0.03124999993393145 0.09999999999999999 0
0.0 0.0333333333833971 0
0.0 0.06666666665533266 0
0.1378547570355081 0.05872292154631246 0
0.1205274442651983 0.05862678463973545 0
0.07803612283544163 0.02746894678379668 0
0.2226162665830209 0.07211648701237751 0
0.04657850476242389 0.07368042341935963 0
0.1622706517654054 0.03938231233726987 0
0.252980499236 0.02602455144963511 0
0.109560885362774 0.06910636912149352 0
0.1035428582731431 0.05536550924987886 0
0.09446340455586462 0.07339030772034122 0
0.1297704041436086 0.04158982110107774 0
0.1132865766637887 0.01593857993116043 0
0.186753216184187 0.08404751813713929 0
0.1877801982831638 0.06703918828045416 0
0.1733905086174061 0.0598112640259766 0
0.1856181996521408 0.04946247546871016 0
0.1868846907912053 0.01597385514967477 0
0.1131718100429242 0.03296260135460721 0
0.04701194323136633 0.02605904576954292 0
0.1472836510273114 0.04403708240920157 0
0.156522442137825 0.05549035706134775 0
0.2530435320912519 0.07390570197147181 0
0.2225760006839336 0.02724783760424724 0
0.02677278634880424 0.04999031169197893 0
0.0585714362847925 0.05091877290869405 0
0.1878893412851503 0.03238808265173287 0
0.2732128773237721 0.04999740635679935 0
0.2405675714137089 0.04967440931258933 0
0.2028012289770727 0.05786760313150688 0
0.09855331488684695 0.02421843491374789 0
0.2022125407954209 0.02420632934680947 0
0.2019215881935539 0.07550588152163751 0
0.1106342982879173 0.08513466862109817 0
0.1763847799930755 0.03897617889497943 0
0.08376496491711016 0.05310692347303086 0
0.1153646765920849 0.04606322378801621 0
0.07093261472684372 0.07688653339035037 0
0.02248813842537181 0.07689914103870149 0
0.02248813853232256 0.02310085904459931 0
0.2775118614781718 0.07689914096938054 0
0.2775118615121814 0.02310085899762184 0
0.2019844792914555 0.04127381659182398 0
0.09873895792459182 0.03986427326051295 0
0.2189762525642749 0.04875447148100505 0
0.1708373164331706 0.04862451755765676 0
POLYGONS 122 488
3 27 9 34
3 34 9 35
3 2 44 51
3 9 28 66
3 10 29 66
3 28 10 66
3 38 57 58
3 57 52 58
3 13 36 52
3 18 19 56
3 19 40 56
3 60 55 61
3 40 60 61
3 13 14 36
3 16 39 53
3 43 29 70
3 34 35 44
3 18 56 64
3 41 9 66
3 14 45 63
3 52 36 58
3 34 53 54
3 56 40 61
3 68 43 70
3 34 44 53
3 53 39 54
3 58 68 70
3 50 18 64
3 30 31 38
3 12 13 52
3 36 14 63
3 51 44 69
3 24 25 37
3 23 24 55
3 24 37 55
3 19 20 40
3 27 34 54
3 25 46 65
3 47 8 48
3 29 43 66
3 48 54 78
3 29 30 70
3 33 32 57
3 35 9 41
3 21 22 60
3 55 37 61
3 11 33 71
3 32 0 72
3 22 6 73
3 31 11 71
3 5 21 74
3 0 12 72
3 6 23 73
3 20 5 74
3 44 35 69
3 54 39 78
3 37 25 65
3 68 36 76
3 38 58 70
3 58 36 68
3 47 48 49
3 30 38 70
3 43 41 66
3 49 48 78
3 36 63 76
3 56 61 77
3 64 56 75
3 57 38 71
3 52 57 72
3 38 31 71
3 75 56 77
3 12 52 72
3 67 49 78
3 55 60 73
3 60 40 74
3 23 55 73
3 40 20 74
3 33 57 71
3 57 32 72
3 42 43 68
3 59 49 67
3 35 41 42
3 15 2 45
3 45 2 51
3 35 42 69
3 26 8 46
3 60 22 73
3 59 50 64
3 21 60 74
3 61 37 77
3 46 8 47
3 47 49 62
3 42 41 43
3 3 59 67
3 3 17 50
3 45 51 63
3 3 50 59
3 49 59 75
3 51 69 76
3 37 62 77
3 42 68 76
3 69 42 76
3 46 47 65
3 59 64 75
3 62 37 65
3 62 49 75
3 47 62 65
3 63 51 76
3 39 67 78
3 62 75 77
3 14 1 45
3 1 15 45
3 2 16 44
3 16 3 39
3 39 3 67
3 17 4 50
3 4 18 50
3 25 7 46
3 7 26 46
3 8 27 48
3 44 16 53
3 48 27 54
CELL_DATA 122
SCALARS mises double 1
LOOKUP_TABLE default
8372597.03403931 5833589.782884404 4967719.697418712 1876122.4138800646 894346.9609626625 1026900.4658489696 3938642.525579713 3933766.477158837 3867871.97951224 3114129.0060465634 3717848.8738395646 3250596.090261562 3262735.942068385 2961748.5358208697 6971626.402386883 3879016.146872905 5820568.635840019 3903043.580317276 5269279.825988785 2592461.7686109194 3951774.5955493837 6700979.740491035 3759504.560761911 4125832.882209952 6466856.139703432 6722383.422551861 4507115.757114355 2602759.3115145755 3456912.228312831 3438753.944458097 3875225.488440292 6034913.519184056 3138008.8454338876 4188186.7081207326 3714355.633676956 4190146.4518645126 6850710.693186191 2623862.824626411 4854890.275201961 2732918.0857472634 6373098.024669033 2828493.887612912 3331237.1906821397 4694673.069644765 3828045.917855341 3757259.2317523556 3364383.239978152 3370614.3631216455 4032367.290351557 3752632.382071453 4032194.8753115926 3746050.177042288 5466301.681345273 5466494.3215749 5478023.865594563 5925936.07212062 3888314.2325362894 4977845.5730528515 3921568.2302850843 4502169.041786194 5823259.272118817 3785722.3166063246 4216061.63900361 5342809.017839184 4094907.52232796 4281200.059787531 4081731.7594322106 3625161.513154098 3644498.995424607 3728797.1098400946 4811345.339556681 3741504.266332451 5486087.781914153 3503885.1231939713 3503305.813351721 3484606.5936704543 3484978.1565777124 3446664.153110443 3452196.1950221187 5217349.043706555 5926786.113016976 5751343.485097866 2095490.4894866815 5591151.6659134 5322163.952417183 2124026.860923226 2620598.828309505 3846445.2106334637 2620978.750819783 4218929.30514619 5541809.319279509 4946445.276970351 4976177.955378082 4669711.502532074 2109640.1361912196 3900891.530707231 5413557.75196391 4952426.819468442 5064966.4873702405 4800206.651166772 5035718.687678102 5664676.429417581 3869637.593549759 5302684.079916284 4057506.535758508 5742459.72383798 5269807.962701968 5276616.94682473 6119932.908718437 4618016.304001141 873990.2355586189 668158.0583249741 8117819.362499758 8612484.112074528 6016830.303546797 689016.4823885411 908249.6234976884 925505.6783252995 658758.552156463 8072231.369498699 6543862.915620663 6567445.891861526
VECTORS principal_stress_1 float
8818204.9155612 -811850.7032030623 0.0
6439927.804810148 -1366108.178871361 0.0
5399744.823170696 1056101.938978956 0.0
3196783.8111050404 -2896415.850906531 0.0
1129597.78417305 -970784.5128740775 0.0
835663.345340045 -115620.82855914271 0.0
3880960.911900986 -46416.96805939731 0.0
3874178.151782333 36540.237136527576 0.0
3839632.3464484913 215246.6378610957 0.0
3098785.212348823 -546579.9565687587 0.0
3739230.5795857483 -433749.3949875909 0.0
3286100.704618259 257014.11332657267 0.0
3298684.8758953335 -262417.07190530567 0.0
2863304.1716872985 393158.08303334593 0.0
7202799.655553415 -234540.52722421876 0.0
3823991.6104659038 -624787.8147517422 0.0
6320029.909731879 194363.06703647756 0.0
3868935.3924952615 -607661.7996857328 0.0
5416203.012632493 -1007784.3365656266 0.0
2451465.1069040624 251418.45061265895 0.0
3792078.4306433666 190288.8276030935 0.0
7080809.32273361 -268098.92771566065 0.0
3716786.540411709 -349459.8117728122 0.0
3826473.962252795 -320612.2671350811 0.0
7018828.678346974 44979.50246060886 0.0
7174055.928326122 -388218.8534256075 0.0
4295646.601646388 -195258.04117058357 0.0
2472092.7969323513 -301735.9885647611 0.0
3430085.5927320938 -129666.16886821964 0.0
3398259.8143400466 155885.3705698106 0.0
3810211.757103653 516328.5402872406 0.0
6173105.903279713 322709.4893127628 0.0
3119445.8602042785 541876.1772749639 0.0
4196168.100095514 459691.6433915039 0.0
3735971.3338012765 431197.3666088563 0.0
4196825.353526187 -460425.41696347133 0.0
7047340.439311747 -147540.9802291422 0.0
2496927.5372471837 305220.7022101883 0.0
5189723.554500985 936229.0240238872 0.0
2500266.0537274186 -284630.46040860907 0.0
6904520.1295136055 429850.1767799374 0.0
2751665.2082790765 -317396.8455184492 0.0
3634678.06511269 -1926.1575471697154 0.0
5041595.682309871 -723826.4786425076 0.0
2981092.129183283 39.36793639872814 0.0
3719291.831771532 342019.1646217657 0.0
3676961.4320253073 -272144.6482260991 0.0
3683757.814776927 272352.54045784654 0.0
3805751.461031853 791776.8184873837 0.0
3881108.203736795 -346858.9695550739 0.0
3805639.6730031976 -791747.797897228 0.0
3873981.7313417424 353083.7325615302 0.0
5382300.812158162 237839.53151371208 0.0
5382408.3930652365 -237806.80923366052 0.0
5781066.4540658 -289788.78740872466 0.0
6441270.585990297 -27406.1561803344 0.0
3849166.082736497 591740.3305203064 0.0
4689154.783901975 188794.5782941268 0.0
3737475.190127126 -218901.05642387652 0.0
4175090.0743196616 153408.46062275823 0.0
5970626.427342129 201281.12061694174 0.0
3792840.068204342 -211406.82288719332 0.0
4370940.286465855 -1217069.4415914207 0.0
5808176.619903125 389977.1358827409 0.0
3878507.8369544 677143.025607513 0.0
4056279.3469152185 -267694.21611973183 0.0
3886601.948109837 -686193.7667930507 0.0
3743078.8114669337 -175579.80759954453 0.0
3760692.2634260217 168096.27224321087 0.0
3725241.268660026 -69116.47844849377 0.0
4643434.031697547 -279807.8461837023 0.0
3736304.404196816 72888.56890853646 0.0
5862317.719950133 -481361.75043956004 0.0
3569983.0110217896 352792.9757195957 0.0
3568918.845576466 -354091.0584617378 0.0
3516715.58029692 523765.86050025123 0.0
3517507.5938231214 -524598.1388750806 0.0
3556717.4793635923 -121216.50594571487 0.0
3558939.7348722164 116908.75245313771 0.0
4960515.707355481 -432253.5165966261 0.0
6080935.868658271 -289525.05960480357 0.0
5758429.572382299 -596173.2555056949 0.0
3392632.899865961 2879301.2388357893 0.0
5866416.140783289 1144860.3887763247 0.0
5463910.351851578 89252.53826872817 0.0
3433357.325463158 2951433.1735264207 0.0
2652856.233255241 27897.29570123221 0.0
4133861.857455629 -1368135.7060505657 0.0
2652970.9672292992 -28025.068011837386 0.0
3998528.7453256487 246964.78659657124 0.0
5825397.0631653685 1221490.060756322 0.0
4984742.692510644 463082.7856751085 0.0
4809161.999087896 -321085.7008477585 0.0
5166284.230188758 -1062674.8756380288 0.0
3418589.111526581 -2891129.6555148847 0.0
4113300.1449318393 1261522.6760997612 0.0
5710476.23016968 -1207750.7500439899 0.0
4997555.136586749 -459449.15838069544 0.0
5092076.823256004 489292.5035874459 0.0
4643715.742778552 259141.9025094762 0.0
4742515.554613406 205012.2639288923 0.0
5518526.420785203 -16955.50439883561 0.0
4094823.7505739075 1276962.1516007225 0.0
5219931.319226226 -527765.2897776572 0.0
3863378.4825232537 655194.0020095855 0.0
5561654.872064467 -10031.994626211326 0.0
5171601.676756081 515676.51722058223 0.0
5170082.433894667 516310.3034443373 0.0
6634546.721129919 -91635.26875203708 0.0
4288516.879790217 10431.613196686807 0.0
1170138.723935723 1021466.1488633881 0.0
424216.95100974035 13227.639199187306 0.0
8661686.511798529 1289080.9547339375 0.0
9021365.554674944 -887468.819005803 0.0
6700286.01727621 -1513074.79972975 0.0
447704.8831068058 -20958.083307127585 0.0
1215024.8214842938 -1060349.321185827 0.0
1248716.476427825 1064163.7099262124 0.0
430563.59611518146 28609.031072265407 0.0
8671205.481501808 1461624.241697522 0.0
6817220.181036064 281981.19312073174 0.0
6898278.739618355 273687.89207635645 0.0
VECTORS principal_stress_2 float
811850.7032030621 8818204.9155612 0.0
1366108.178871361 6439927.804810148 0.0
-1056101.9389789556 5399744.823170696 0.0
2896415.8509065313 3196783.8111050404 0.0
970784.5128740775 1129597.78417305 0.0
115620.82855914281 835663.345340045 0.0
46416.96805939757 3880960.911900986 0.0
-36540.23713652725 3874178.151782333 0.0
-215246.63786109583 3839632.3464484913 0.0
546579.9565687589 3098785.212348823 0.0
433749.39498759125 3739230.5795857483 0.0
-257014.11332657275 3286100.704618259 0.0
262417.07190530596 3298684.8758953335 0.0
-393158.0830333458 2863304.1716872985 0.0
234540.5272242195 7202799.655553415 0.0
624787.8147517422 3823991.6104659038 0.0
-194363.06703647645 6320029.909731879 0.0
607661.7996857333 3868935.3924952615 0.0
1007784.336565627 5416203.012632493 0.0
-251418.45061265895 2451465.1069040624 0.0
-190288.82760309288 3792078.4306433666 0.0
268098.92771566106 7080809.32273361 0.0
349459.8117728126 3716786.540411709 0.0
320612.2671350814 3826473.962252795 0.0
-44979.50246060888 7018828.678346974 0.0
388218.85342560784 7174055.928326122 0.0
195258.0411705839 4295646.601646388 0.0
301735.98856476106 2472092.7969323513 0.0
129666.16886821957 3430085.5927320938 0.0
-155885.3705698101 3398259.8143400466 0.0
-516328.5402872402 3810211.757103653 0.0
-322709.4893127622 6173105.903279713 0.0
-541876.1772749636 3119445.8602042785 0.0
-459691.6433915035 4196168.100095514 0.0
-431197.36660885595 3735971.3338012765 0.0
460425.4169634714 4196825.353526187 0.0
147540.98022914334 7047340.439311747 0.0
-305220.7022101882 2496927.5372471837 0.0
-936229.0240238865 5189723.554500986 0.0
284630.46040860907 2500266.0537274186 0.0
-429850.1767799376 6904520.1295136055 0.0
317396.84551844944 2751665.2082790765 0.0
1926.1575471697668 3634678.06511269 0.0
723826.478642508 5041595.682309871 0.0
-39.36793639861726 2981092.129183283 0.0
-342019.1646217656 3719291.831771532 0.0
272144.6482260991 3676961.4320253073 0.0
-272352.540457846 3683757.814776927 0.0
-791776.8184873837 3805751.461031853 0.0
346858.96955507394 3881108.203736795 0.0
791747.7978972282 3805639.6730031976 0.0
-353083.73256153014 3873981.7313417424 0.0
-237839.53151371173 5382300.812158162 0.0
237806.809233661 5382408.3930652365 0.0
289788.7874087256 5781066.4540658 0.0
27406.15618033443 6441270.585990297 0.0
-591740.330520306 3849166.0827364973 0.0
-188794.57829412652 4689154.783901975 0.0
218901.05642387705 3737475.190127126 0.0
-153408.4606227584 4175090.0743196616 0.0
-201281.12061694087 5970626.427342129 0.0
211406.82288719356 3792840.068204342 0.0
1217069.4415914207 4370940.286465855 0.0
-389977.1358827404 5808176.619903125 0.0
-677143.0256075124 3878507.8369544 0.0
267694.216119732 4056279.3469152185 0.0
686193.7667930512 3886601.948109837 0.0
175579.80759954455 3743078.8114669337 0.0
-168096.27224321035 3760692.2634260217 0.0
69116.47844849393 3725241.268660026 0.0
279807.8461837024 4643434.031697547 0.0
-72888.56890853641 3736304.404196816 0.0
481361.7504395608 5862317.719950133 0.0
-352792.97571959544 3569983.0110217896 0.0
354091.0584617376 3568918.845576466 0.0
-523765.8605002511 3516715.58029692 0.0
524598.1388750812 3517507.5938231214 0.0
121216.50594571482 3556717.4793635923 0.0
-116908.75245313783 3558939.7348722164 0.0
432253.516596626 4960515.707355481 0.0
289525.0596048034 6080935.868658271 0.0
596173.2555056952 5758429.572382299 0.0
-2879301.2388357883 3392632.899865962 0.0
-1144860.388776324 5866416.140783289 0.0
-89252.53826872763 5463910.351851578 0.0
-2951433.1735264203 3433357.325463159 0.0
-27897.29570123202 2652856.233255241 0.0
1368135.7060505662 4133861.857455629 0.0
28025.06801183758 2652970.9672292992 0.0
-246964.78659657104 3998528.7453256487 0.0
-1221490.0607563222 5825397.0631653685 0.0
-463082.78567510773 4984742.692510644 0.0
321085.7008477585 4809161.999087896 0.0
1062674.8756380295 5166284.230188758 0.0
2891129.6555148847 3418589.1115265805 0.0
-1261522.676099761 4113300.1449318393 0.0
1207750.7500439896 5710476.23016968 0.0
459449.1583806961 4997555.136586749 0.0
-489292.5035874458 5092076.823256004 0.0
-259141.90250947638 4643715.742778552 0.0
-205012.26392889244 4742515.554613406 0.0
16955.50439883559 5518526.420785203 0.0
-1276962.1516007227 4094823.7505739075 0.0
527765.289777658 5219931.319226226 0.0
-655194.0020095852 3863378.482523254 0.0
10031.994626211816 5561654.872064467 0.0
-515676.51722058235 5171601.676756081 0.0
-516310.30344433745 5170082.433894667 0.0
91635.26875203768 6634546.721129919 0.0
-10431.613196686494 4288516.879790217 0.0
-1021466.1488633881 1170138.723935723 0.0
-13227.639199187322 424216.95100974035 0.0
-1289080.9547339377 8661686.511798529 0.0
887468.8190058038 9021365.554674944 0.0
1513074.7997297507 6700286.01727621 0.0
20958.083307127636 447704.8831068058 0.0
1060349.3211858273 1215024.8214842938 0.0
-1064163.7099262127 1248716.4764278247 0.0
-28609.03107226535 430563.5961151815 0.0
-1461624.2416975226 8671205.481501808 0.0
-281981.1931207311 6817220.181036064 0.0
-273687.8920763556 6898278.739618355 0.0
POINT_DATA 79
VECTORS displacements float
0.0 0.0 0.0
1.6381672387262812e-05 -3.672736407618233e-08 0.0
2.3617735086364043e-05 3.6418928614704554e-07 0.0
4.4295193539403696e-05 -2.0611251099491758e-08 0.0
5.172371785114674e-05 -4.13742011002172e-07 0.0
7.199515799002562e-05 4.026922503038357e-06 0.0
7.158368974193831e-05 -3.3915153731690693e-06 0.0
5.123214325800873e-05 -9.805265775128033e-08 0.0
4.41059569414687e-05 -5.486958450412138e-07 0.0
2.3723872726422945e-05 -2.562560328667185e-07 0.0
1.628644680880878e-05 1.4895901083095466e-07 0.0
0.0 0.0 0.0
5.7271045247843894e-06 1.6115570415929034e-06 0.0
1.0853107552327915e-05 2.3460562866126546e-06 0.0
1.518041074865201e-05 2.846263904383094e-06 0.0
1.8391979532144382e-05 -2.959209059205257e-07 0.0
3.368850171575728e-05 9.216811787614611e-07 0.0
4.962147454760041e-05 -6.759864449083284e-07 0.0
5.2972065971283056e-05 2.6209439583460487e-06 0.0
5.758668921527939e-05 2.0538523658114214e-06 0.0
6.386439525315842e-05 1.7725623500935882e-06 0.0
6.615321735648051e-05 1.8659776477393494e-06 0.0
6.601562080083855e-05 -1.2303533576516623e-06 0.0
6.345313879855588e-05 -1.3936173914630104e-06 0.0
5.717708958075085e-05 -1.922969999828411e-06 0.0
5.252842602642294e-05 -2.7614646341791233e-06 0.0
4.927959600700397e-05 1.5197985707434892e-07 0.0
3.4069081515268936e-05 -1.148860209924049e-06 0.0
1.8420421372144872e-05 4.4611568372717046e-07 0.0
1.506339630142096e-05 -2.9078592366415547e-06 0.0
1.0904901878692105e-05 -2.318787303544041e-06 0.0
5.737913576991626e-06 -1.6096424177500356e-06 0.0
0.0 0.0 0.0
0.0 0.0 0.0
2.9836934801103723e-05 -4.7576875114584215e-08 0.0
2.4768689666994745e-05 -2.5911465079694294e-07 0.0
1.392965780627553e-05 1.5220329036684962e-06 0.0
5.3864260892132426e-05 -1.3144551853090582e-06 0.0
8.075843147763906e-06 -1.0166765803068823e-06 0.0
3.808751461305054e-05 -2.296083771456327e-07 0.0
5.952718457942576e-05 8.22578447797003e-07 0.0
2.0866042933896587e-05 -1.0150331304406707e-06 0.0
2.035778244157619e-05 -3.105450349826906e-07 0.0
1.7054386385085683e-05 -1.6707563003981822e-06 0.0
2.7369074347288534e-05 -7.279300442098518e-08 0.0
1.8667364791603577e-05 1.4840930351242237e-06 0.0
4.901957636614114e-05 -1.5462005387854771e-06 0.0
4.6048526136255945e-05 -9.506785630097672e-07 0.0
4.155899223099229e-05 -1.562572441838674e-07 0.0
4.445535635282202e-05 -1.2310818318334163e-07 0.0
4.933200048624059e-05 1.1988422604062305e-06 0.0
2.1915445132977048e-05 8.443323721989401e-07 0.0
8.18127181950745e-06 1.022632254293218e-06 0.0
3.303680833373172e-05 1.5169949305729982e-07 0.0
3.605429639125804e-05 -3.81583216503887e-07 0.0
5.9336612910445855e-05 -5.6846147841844e-07 0.0
5.405762783308156e-05 1.3504001875883971e-06 0.0
4.491251588560524e-06 -4.760179811271805e-09 0.0
1.045346458130176e-05 -4.234085980180822e-08 0.0
4.6171494336333426e-05 6.903148127119172e-07 0.0
6.190116912117136e-05 2.0730238909604607e-07 0.0
5.6767266454549296e-05 8.334343231723618e-08 0.0
4.906545815753299e-05 -6.485316862649897e-07 0.0
1.7496118705032694e-05 1.7531208760571873e-06 0.0
5.0505051133437496e-05 1.5477922206318207e-06 0.0
5.0254817004281174e-05 -1.71320651390719e-06 0.0
1.821147323105134e-05 -1.6809244235934478e-06 0.0
4.243676927326215e-05 5.4394876946082166e-08 0.0
1.570203014365664e-05 -2.629940998479525e-07 0.0
2.3435462217741063e-05 1.6935823828359679e-07 0.0
1.2500842568424352e-05 -1.6635339528619007e-06 0.0
3.810019815065171e-06 -5.670920458984444e-07 0.0
3.817076092323096e-06 5.675205601750561e-07 0.0
6.360068749040875e-05 -5.651196431163982e-07 0.0
6.382249135534164e-05 1.0157693185325694e-06 0.0
4.892643609709942e-05 5.118435553086675e-07 0.0
1.8918868645443272e-05 7.788135050322577e-07 0.0
5.251247832081427e-05 4.569335543852849e-08 0.0
4.045588506386211e-05 -1.1105934445484176e-07 0.0