# vtk DataFile Version 2.0
Really cool data
ASCII
DATASET POLYDATA
POINTS 79 float
0.0 0.0 0
0.125 0.0 0
0.125 0.025 0
0.175 0.025 0
0.175 0.0 0
0.3 0.0 0
0.3 0.1 0
0.175 0.1 0
0.175 0.07500000000000001 0
0.125 0.07500000000000001 0
0.125 0.1 0
0.0 0.1 0
0.03125000004370471 0.0 0
0.0625000001307804 0.0 0
0.09374999998068687 0.0 0
0.125 0.01250000001946666 0
0.1500000000542101 0.025 0
0.175 0.01249999996954493 0
0.2062499999498556 0.0 0
0.2375000000298155 0.0 0
0.2687499999363031 0.0 0
0.3 0.0333333333833971 0
0.3 0.06666666665533266 0
0.2687499999857699 0.1 0
0.2374999999335926 0.1 0
0.2062499998895469 0.09999999999999999 0
0.175 0.08749999992410584 0
0.1499999998970008 0.07500000000000001 0
0.125 0.08749999998373698 0
0.09374999993189857 0.09999999999999999 0
0.0624999998448236 0.1 0
0.03124999993393145 0.09999999999999999 0
0.0 0.0333333333833971 0
0.0 0.06666666665533266 0
0.1378547570355081 0.05872292154631246 0
0.1205274442651983 0.05862678463973545 0
0.07803612283544163 0.02746894678379668 0
0.2226162665830209 0.07211648701237751 0
0.04657850476242389 0.07368042341935963 0
0.1622706517654054 0.03938231233726987 0
0.252980499236 0.02602455144963511 0
0.109560885362774 0.06910636912149352 0
0.1035428582731431 0.05536550924987886 0
0.09446340455586462 0.07339030772034122 0
0.1297704041436086 0.04158982110107774 0
0.1132865766637887 0.01593857993116043 0
0.186753216184187 0.08404751813713929 0
0.1877801982831638 0.06703918828045416 0
0.1733905086174061 0.0598112640259766 0
0.1856181996521408 0.04946247546871016 0
0.1868846907912053 0.01597385514967477 0
0.1131718100429242 0.03296260135460721 0
0.04701194323136633 0.02605904576954292 0
0.1472836510273114 0.04403708240920157 0
0.156522442137825 0.05549035706134775 0
0.2530435320912519 0.07390570197147181 0
0.2225760006839336 0.02724783760424724 0
0.02677278634880424 0.04999031169197893 0
0.0585714362847925 0.05091877290869405 0
0.1878893412851503 0.03238808265173287 0
0.2732128773237721 0.04999740635679935 0
0.2405675714137089 0.04967440931258933 0
0.2028012289770727 0.05786760313150688 0
0.09855331488684695 0.02421843491374789 0
0.2022125407954209 0.02420632934680947 0
0.2019215881935539 0.07550588152163751 0
0.1106342982879173 0.08513466862109817 0
0.1763847799930755 0.03897617889497943 0
0.08376496491711016 0.05310692347303086 0
0.1153646765920849 0.04606322378801621 0
0.07093261472684372 0.07688653339035037 0
0.02248813842537181 0.07689914103870149 0
0.02248813853232256 0.02310085904459931 0
0.2775118614781718 0.07689914096938054 0
0.2775118615121814 0.02310085899762184 0
0.2019844792914555 0.04127381659182398 0
0.09873895792459182 0.03986427326051295 0
0.2189762525642749 0.04875447148100505 0
0.1708373164331706 0.04862451755765676 0
POLYGONS 122 488
3 27 9 34
3 34 9 35
3 2 44 51
3 9 28 66
3 10 29 66
3 28 10 66
3 38 57 58
3 57 52 58
3 13 36 52
3 18 19 56
3 19 40 56
3 60 55 61
3 40 60 61
3 13 14 36
3 16 39 53
3 43 29 70
3 34 35 44
3 18 56 64
3 41 9 66
3 14 45 63
3 52 36 58
3 34 53 54
3 56 40 61
3 68 43 70
3 34 44 53
3 53 39 54
3 58 68 70
3 50 18 64
3 30 31 38
3 12 13 52
3 36 14 63
3 51 44 69
3 24 25 37
3 23 24 55
3 24 37 55
3 19 20 40
3 27 34 54
3 25 46 65
3 47 8 48
3 29 43 66
3 48 54 78
3 29 30 70
3 33 32 57
3 35 9 41
3 21 22 60
3 55 37 61
3 11 33 71
3 32 0 72
3 22 6 73
3 31 11 71
3 5 21 74
3 0 12 72
3 6 23 73
3 20 5 74
3 44 35 69
3 54 39 78
3 37 25 65
3 68 36 76
3 38 58 70
3 58 36 68
3 47 48 49
3 30 38 70
3 43 41 66
3 49 48 78
3 36 63 76
3 56 61 77
3 64 56 75
3 57 38 71
3 52 57 72
3 38 31 71
3 75 56 77
3 12 52 72
3 67 49 78
3 55 60 73
3 60 40 74
3 23 55 73
3 40 20 74
3 33 57 71
3 57 32 72
3 42 43 68
3 59 49 67
3 35 41 42
3 15 2 45
3 45 2 51
3 35 42 69
3 26 8 46
3 60 22 73
3 59 50 64
3 21 60 74
3 61 37 77
3 46 8 47
3 47 49 62
3 42 41 43
3 3 59 67
3 3 17 50
3 45 51 63
3 3 50 59
3 49 59 75
3 51 69 76
3 37 62 77
3 42 68 76
3 69 42 76
3 46 47 65
3 59 64 75
3 62 37 65
3 62 49 75
3 47 62 65
3 63 51 76
3 39 67 78
3 62 75 77
3 14 1 45
3 1 15 45
3 2 16 44
3 16 3 39
3 39 3 67
3 17 4 50
3 4 18 50
3 25 7 46
3 7 26 46
3 8 27 48
3 44 16 53
3 48 27 54
CELL_DATA 122
SCALARS mises double 1
LOOKUP_TABLE default
5023558.167965649 3500153.7523301374 2980631.9293156173 1125672.6571144543 536607.7724737461 616140.1846140673 2363185.508069521 2360259.8920370894 2320723.2217420954 1868477.2921108052 2230709.2536730953 1950357.7009909616 1957641.517594257 1777049.2087316394 4182975.8225829424 2327409.58469285 3492341.1978265904 2341826.049541112 3161567.78114467 1555477.1265400734 2371064.788635065 4020587.823082575 2255702.6786688464 2475499.675545774 3880113.687221335 4033430.023661172 2704269.4257915057 1561655.508843689 2074147.3140855227 2063252.3945979725 2325135.3779581315 3620948.1422352176 1882805.4170224427 2512912.0916834176 2228613.4504630035 2514087.8041874184 4110426.403736564 1574317.7728621745 2912934.2696500802 1639750.777226146 3823858.8481827322 1697096.2602270914 1998742.3141317419 2816803.7610427034 2296827.5507221436 2254355.595473931 2018629.9050108313 2022368.6568063905 2419420.5134318764 2251579.3770088367 2419316.785968213 2247630.1595276506 3279781.035787617 3279896.5659683933 3286814.291164177 3555561.641023362 2332988.6360400636 2986707.3692382746 2352940.901406046 2701301.4484733236 3493955.5829792256 2271433.3564272714 2529636.8007787513 3205685.446462758 2456944.6278122994 2568719.9942251714 2449038.940227324 2175096.8806684427 2186699.423209317 2237278.254755585 2886807.166241452 2244902.5715272706 3291652.623642288 2102331.132912083 2101983.4287643526 2090764.047808202 2090986.80221817 2067998.4721039857 2071317.736083161 3130409.371109383 3556071.6399507653 3450806.0280009764 1257294.9924860129 3354691.1171485106 3193298.3809714545 1274416.8164160296 1572359.3032156974 2307866.905763726 1572587.2442329167 2531357.622027029 3325085.718898169 2967867.222213982 2985706.7316801515 2801826.7889904487 1265783.382488513 2340535.1217492726 3248134.523217584 2971456.036325866 3038979.9505737335 2880124.0253323107 3021431.2398992176 3398805.8557629026 2321782.763225221 3181610.385442543 2434504.0319463783 3445475.833189369 3161884.83940454 3165970.230057649 3671959.73788317 2770809.7839457537 524394.6137475868 400894.8565830177 4870691.702431642 5167490.410608101 3610098.0586977107 413409.857014016 544949.3026883746 555303.8791212298 395255.177405456 4843338.917780212 3926317.7730686055 3940467.5575639913
VECTORS principal_stress_1 float
5290922.949336719 -487110.4219218373 0.0
3863956.6828860813 -819664.9073228197 0.0
3239846.893902419 633661.1633873762 0.0
1918070.2866630212 -1737849.5105439175 0.0
677758.6705038341 -582470.7077244489 0.0
501398.0072040203 -69372.49713548309 0.0
2328576.54714059 -27850.18083563821 0.0
2324506.891069398 21924.142281916127 0.0
2303779.4078690973 129147.982716657 0.0
1859271.1274092935 -327947.9739412521 0.0
2243538.3477514563 -260249.63699254862 0.0
1971660.4227709614 154208.46799594315 0.0
1979210.9255372107 -157450.24314318682 0.0
1717982.5030123799 235894.84982000734 0.0
4321679.793332045 -140724.31633452955 0.0
2294394.9662795397 -374872.6888510474 0.0
3792017.9458391224 116617.8402218817 0.0
2321361.235497156 -364597.0798114348 0.0
3249721.807579488 -604670.6019393738 0.0
1470879.0641424437 150851.07036759285 0.0
2275247.058386023 114173.29656185511 0.0
4248485.593640164 -160859.3566293978 0.0
2230071.9242470274 -209675.88706369148 0.0
2295884.3773516743 -192367.3602810503 0.0
4211297.20700818 26987.70147636303 0.0
4304433.556995666 -232931.3120553649 0.0
2577387.9609878385 -117154.82470235013 0.0
1483255.6781594104 -181041.59313885393 0.0
2058051.3556392519 -77799.70132093182 0.0
2038955.8886040293 93531.22234188582 0.0
2286127.054262187 309797.1241723428 0.0
3703863.5419678316 193625.69358765773 0.0
1871667.5161225728 325125.70636497566 0.0
2517700.860057312 275814.9860349036 0.0
2241582.8002807633 258718.41996531215 0.0
2518095.2121157153 -276255.25017808104 0.0
4228404.263587043 -88524.58813748494 0.0
1498156.5223483136 183132.42132610572 0.0
3113834.132700601 561737.4144143326 0.0
1500159.6322364549 -170778.27624516675 0.0
4142712.077708158 257910.10606795317 0.0
1650999.124967444 -190438.10731107183 0.0
2180806.839067613 -1155.6945283019932 0.0
3024957.40938592 -434295.8871855089 0.0
1788655.2775099757 23.620761843130143 0.0
2231575.099062916 205211.49877306176 0.0
2206176.8592151846 -163286.78893565954 0.0
2210254.688866156 163411.5242747078 0.0
2283450.876619132 475066.0910924275 0.0
2328664.9222420775 -208115.3817330444 0.0
2283383.803801915 -475048.6787383368 0.0
2324389.038805046 211850.23953691774 0.0
3229380.4872948974 142703.71890822984 0.0
3229445.0358391386 -142684.08554019424 0.0
3468639.8724394813 -173873.272445237 0.0
3864762.351594182 -16443.693708200175 0.0
2309499.6496419036 355044.1983121743 0.0
2813492.870341184 113276.74697647517 0.0
2242485.114076278 -131340.63385432537 0.0
2505054.0445918017 92045.07637365379 0.0
3582375.8564052903 120768.672370152 0.0
2275704.0409226073 -126844.09373231814 0.0
2622564.1718795127 -730241.6649548517 0.0
3484905.971941894 233986.2815296315 0.0
2327104.702172639 406285.81536450755 0.0
2433767.608149125 -160616.52967184025 0.0
2331961.1688658986 -411716.2600758317 0.0
2245847.2868801584 -105347.88455972649 0.0
2256415.3580556116 100857.76334592627 0.0
2235144.7611960135 -41469.88706909565 0.0
2786060.419018528 -167884.7077102225 0.0
2241782.6425180887 43733.14134512126 0.0
3517390.6319701006 -288817.0502637363 0.0
2141989.8066130714 211675.78543175623 0.0
2141351.307345872 -212454.63507704358 0.0
2110029.348178149 314259.516300154 0.0
2110504.556293864 -314758.88332504523 0.0
2134030.4876181553 -72729.90356742873 0.0
2135363.84092333 70145.25147188206 0.0
2976309.424413293 -259352.10995797996 0.0
3648561.521194954 -173715.03576287552 0.0
3455057.7434293726 -357703.95330342086 0.0
2035579.7399195717 1727580.7433014724 0.0
3519849.684469966 686916.2332657928 0.0
3278346.2111109383 53551.522961236704 0.0
2060014.3952778943 1770859.904115857 0.0
1591713.739953167 16738.377420733592 0.0
2480317.114473393 -820881.4236303429 0.0
1591782.580337576 -16815.04080710242 0.0
2399117.247195385 148178.87195794398 0.0
3495238.237899223 732894.0364537917 0.0
2990845.6155063733 277849.6714050546 0.0
2885497.1994527355 -192651.4205086609 0.0
3099770.5381132467 -637604.9253828139 0.0
2051153.466915955 -1734677.7933089288 0.0
2467980.0869591082 756913.6056598532 0.0
3426285.7381018144 -724650.4500263984 0.0
2998533.0819520527 -275669.4950284121 0.0
3055246.0939536034 293575.502152468 0.0
2786229.4456671537 155485.141505687 0.0
2845509.3327680496 123007.35835733685 0.0
3311115.852471122 -10173.302639299576 0.0
2456894.2503443602 766177.2909604379 0.0
3131958.791535758 -316659.17386659875 0.0
2318027.089513963 393116.40120575577 0.0
3336992.923238658 -6019.1967757326 0.0
3102961.006053658 309405.9103323554 0.0
3102049.4603367993 309786.1820666021 0.0
3980728.0326779657 -54981.16125122407 0.0
2573110.1278741346 6258.967918004173 0.0
702083.2343614333 612879.6893180318 0.0
254530.17060584252 7936.583519513189 0.0
5197011.9070791155 773448.5728403641 0.0
5412819.332804971 -532481.2914034829 0.0
4020171.6103657414 -907844.8798378456 0.0
268622.92986408575 -12574.849984273565 0.0
729014.8928905766 -636209.5927114923 0.0
749229.8858566841 638498.2259557239 0.0
258338.1576691007 17165.418643353885 0.0
5202723.288901071 876974.5450185112 0.0
4090332.1086216304 169188.7158724416 0.0
4138967.2437710026 164212.73524581155 0.0
VECTORS principal_stress_2 float
487110.4219218371 5290922.949336719 0.0
819664.9073228203 3863956.6828860813 0.0
-633661.1633873759 3239846.893902419 0.0
1737849.5105439178 1918070.286663021 0.0
582470.707724449 677758.6705038341 0.0
69372.49713548317 501398.0072040202 0.0
27850.180835638526 2328576.54714059 0.0
-21924.142281915818 2324506.891069398 0.0
-129147.98271665661 2303779.4078690973 0.0
327947.9739412523 1859271.1274092935 0.0
260249.63699254856 2243538.3477514563 0.0
-154208.46799594324 1971660.4227709614 0.0
157450.24314318705 1979210.9255372107 0.0
-235894.8498200072 1717982.5030123799 0.0
140724.31633452966 4321679.793332045 0.0
374872.68885104754 2294394.9662795397 0.0
-116617.8402218815 3792017.9458391224 0.0
364597.079811435 2321361.235497156 0.0
604670.6019393741 3249721.807579488 0.0
-150851.0703675927 1470879.0641424437 0.0
-114173.29656185489 2275247.058386023 0.0
160859.35662939845 4248485.593640164 0.0
209675.88706369177 2230071.9242470274 0.0
192367.36028105064 2295884.3773516743 0.0
-26987.701476362494 4211297.20700818 0.0
232931.31205536527 4304433.556995666 0.0
117154.82470235003 2577387.9609878385 0.0
181041.59313885393 1483255.6781594104 0.0
77799.70132093203 2058051.3556392519 0.0
-93531.22234188567 2038955.8886040293 0.0
-309797.1241723428 2286127.054262187 0.0
-193625.69358765753 3703863.5419678316 0.0
-325125.7063649757 1871667.5161225728 0.0
-275814.9860349036 2517700.860057312 0.0
-258718.41996531183 2241582.800280764 0.0
276255.25017808145 2518095.2121157153 0.0
88524.58813748496 4228404.263587043 0.0
-183132.42132610554 1498156.5223483136 0.0
-561737.4144143322 3113834.132700601 0.0
170778.2762451669 1500159.6322364549 0.0
-257910.106067953 4142712.077708158 0.0
190438.10731107203 1650999.124967444 0.0
1155.6945283023438 2180806.839067613 0.0
434295.8871855092 3024957.40938592 0.0
-23.62076184314205 1788655.2775099757 0.0
-205211.49877306155 2231575.0990629164 0.0
163286.78893565945 2206176.8592151846 0.0
-163411.5242747076 2210254.688866156 0.0
-475066.09109242755 2283450.876619132 0.0
208115.38173304437 2328664.9222420775 0.0
475048.6787383367 2283383.803801915 0.0
-211850.23953691762 2324389.038805046 0.0
-142703.71890822993 3229380.4872948974 0.0
142684.0855401943 3229445.0358391386 0.0
173873.27244523697 3468639.8724394813 0.0
16443.693708200677 3864762.351594182 0.0
-355044.198312174 2309499.649641904 0.0
-113276.74697647525 2813492.870341184 0.0
131340.63385432537 2242485.114076278 0.0
-92045.07637365356 2505054.0445918017 0.0
-120768.67237015143 3582375.8564052903 0.0
126844.09373231829 2275704.0409226073 0.0
730241.6649548517 2622564.1718795127 0.0
-233986.28152963147 3484905.971941894 0.0
-406285.8153645073 2327104.702172639 0.0
160616.52967184043 2433767.608149125 0.0
411716.26007583167 2331961.1688658986 0.0
105347.88455972666 2245847.2868801584 0.0
-100857.76334592614 2256415.3580556116 0.0
41469.88706909582 2235144.7611960135 0.0
167884.7077102227 2786060.419018528 0.0
-43733.14134512133 2241782.6425180887 0.0
288817.0502637366 3517390.6319701006 0.0
-211675.78543175606 2141989.8066130714 0.0
212454.63507704373 2141351.307345872 0.0
-314259.51630015403 2110029.348178149 0.0
314758.88332504546 2110504.5562938633 0.0
72729.90356742889 2134030.4876181553 0.0
-70145.25147188174 2135363.84092333 0.0
259352.10995798 2976309.424413293 0.0
173715.03576287598 3648561.521194954 0.0
357703.9533034211 3455057.743429372 0.0
-1727580.7433014717 2035579.739919572 0.0
-686916.233265793 3519849.684469966 0.0
-53551.52296123645 3278346.2111109383 0.0
-1770859.9041158564 2060014.395277895 0.0
-16738.377420733435 1591713.739953167 0.0
820881.4236303432 2480317.114473393 0.0
16815.040807102512 1591782.580337576 0.0
-148178.87195794395 2399117.247195385 0.0
-732894.0364537913 3495238.237899223 0.0
-277849.67140505475 2990845.6155063733 0.0
192651.42050866078 2885497.1994527355 0.0
637604.9253828139 3099770.5381132467 0.0
1734677.793308929 2051153.4669159546 0.0
-756913.6056598531 2467980.0869591082 0.0
724650.4500263983 3426285.7381018144 0.0
275669.49502841255 2998533.0819520527 0.0
-293575.50215246767 3055246.093953604 0.0
-155485.1415056871 2786229.4456671537 0.0
-123007.358357337 2845509.3327680496 0.0
10173.302639299887 3311115.852471122 0.0
-766177.2909604374 2456894.2503443602 0.0
316659.1738665991 3131958.791535758 0.0
-393116.40120575554 2318027.089513963 0.0
6019.196775732978 3336992.923238658 0.0
-309405.91033235524 3102961.006053658 0.0
-309786.1820666017 3102049.4603367993 0.0
54981.16125122457 3980728.0326779657 0.0
-6258.967918003909 2573110.1278741346 0.0
-612879.6893180319 702083.2343614332 0.0
-7936.583519513189 254530.17060584252 0.0
-773448.5728403635 5197011.9070791155 0.0
532481.2914034828 5412819.332804971 0.0
907844.8798378456 4020171.6103657414 0.0
12574.84998427358 268622.92986408575 0.0
636209.5927114924 729014.8928905766 0.0
-638498.2259557237 749229.8858566843 0.0
-17165.41864335388 258338.1576691007 0.0
-876974.5450185111 5202723.288901071 0.0
-169188.71587244107 4090332.1086216304 0.0
-164212.73524581108 4138967.2437710026 0.0
POINT_DATA 79
VECTORS displacements float
0.0 0.0 0.0
9.829003432357694e-06 -2.2036418445710223e-08 0.0
1.4170641051818428e-05 2.1851357168822745e-07 0.0
2.6577116123642223e-05 -1.2366750659684518e-08 0.0
3.103423071068806e-05 -2.4824520660128936e-07 0.0
4.31970947940154e-05 2.4161535018230776e-06 0.0
4.295021384516297e-05 -2.034909223901377e-06 0.0
3.07392859548052e-05 -5.883159465075982e-08 0.0
2.6463574164881195e-05 -3.2921750702472165e-07 0.0
1.4234323635853759e-05 -1.5375361972003077e-07 0.0
9.771868085285263e-06 8.93754064985735e-08 0.0
0.0 0.0 0.0
3.4362627148706348e-06 9.669342249557416e-07 0.0
6.511864531396752e-06 1.4076337719675944e-06 0.0
9.108246449191212e-06 1.7077583426298571e-06 0.0
1.1035187719286635e-05 -1.775525435523159e-07 0.0
2.0213101029454365e-05 5.530087072568765e-07 0.0
2.977288472856026e-05 -4.055918669449852e-07 0.0
3.1783239582769846e-05 1.572566375007652e-06 0.0
3.455201352916765e-05 1.2323114194868915e-06 0.0
3.8318637151895075e-05 1.0635374100561983e-06 0.0
3.969193041388831e-05 1.1195865886436717e-06 0.0
3.960937248050315e-05 -7.382120145909336e-07 0.0
3.8071883279133505e-05 -8.361704348777548e-07 0.0
3.430625374845048e-05 -1.1537819998970086e-06 0.0
3.151705561585372e-05 -1.656878780507455e-06 0.0
2.9567757604202358e-05 9.11879142446174e-08 0.0
2.0441448909161352e-05 -6.893161259544249e-07 0.0
1.1052252823286917e-05 2.676694102363032e-07 0.0
9.038037780852567e-06 -1.7447155419849326e-06 0.0
6.542941127215258e-06 -1.3912723821264242e-06 0.0
3.442748146194976e-06 -9.657854506500212e-07 0.0
0.0 0.0 0.0
0.0 0.0 0.0
1.790216088066223e-05 -2.8546125068747917e-08 0.0
1.4861213800196846e-05 -1.5546879047816575e-07 0.0
8.357794683765322e-06 9.132197422010985e-07 0.0
3.2318556535279454e-05 -7.886731111854068e-07 0.0
4.845505888658341e-06 -6.100059481841295e-07 0.0
2.285250876783032e-05 -1.3776502628737488e-07 0.0
3.571631074765548e-05 4.93547068678246e-07 0.0
1.2519625760337949e-05 -6.090198782644025e-07 0.0
1.2214669464945721e-05 -1.863270209896155e-07 0.0
1.0232631831051406e-05 -1.00245378023891e-06 0.0
1.6421444608373126e-05 -4.3675802652592355e-08 0.0
1.1200418874962154e-05 8.904558210745329e-07 0.0
2.9411745819684657e-05 -9.277203232712738e-07 0.0
2.762911568175355e-05 -5.704071378058498e-07 0.0
2.4935395338595357e-05 -9.37543465103143e-08 0.0
2.6673213811693225e-05 -7.386490990999432e-08 0.0
2.959920029174437e-05 7.19305356243754e-07 0.0
1.314926707978623e-05 5.06599423319362e-07 0.0
4.908763091704468e-06 6.135793525759305e-07 0.0
1.982208500023903e-05 9.101969583438176e-08 0.0
2.1632577834754816e-05 -2.289499299023283e-07 0.0
3.56019677462675e-05 -3.410768870510229e-07 0.0
3.243457669984895e-05 8.102401125530657e-07 0.0
2.6947509531363133e-06 -2.856107886763488e-09 0.0
6.2720787487810525e-06 -2.5404515881085153e-08 0.0
2.7702896601800058e-05 4.14188887627165e-07 0.0
3.714070147270282e-05 1.243814334576796e-07 0.0
3.406035987272957e-05 5.000605939037875e-08 0.0
2.943927489451978e-05 -3.891190117589743e-07 0.0
1.0497671223019618e-05 1.0518725256343119e-06 0.0
3.0303030680062516e-05 9.286753323791128e-07 0.0
3.015289020256869e-05 -1.0279239083442937e-06 0.0
1.0926883938630801e-05 -1.0085546541560692e-06 0.0
2.5462061563957296e-05 3.263692616765928e-08 0.0
9.421218086193988e-06 -1.5779645990877232e-07 0.0
1.4061277330644641e-05 1.01614942970157e-07 0.0
7.500505541054611e-06 -9.981203717171412e-07 0.0
2.286011889039103e-06 -3.4025522753906696e-07 0.0
2.290245655393858e-06 3.4051233610503344e-07 0.0
3.816041249424523e-05 -3.390717858697849e-07 0.0
3.8293494813205e-05 6.094615911195955e-07 0.0
2.935586165825966e-05 3.071061331852205e-07 0.0
1.1351321187265966e-05 4.672881030193536e-07 0.0
3.150748699248857e-05 2.7416013263144182e-08 0.0
2.4273531038317262e-05 -6.663560667289786e-08 0.0