# vtk DataFile Version 2.0
Really cool data
ASCII
DATASET POLYDATA
POINTS 79 float
0.0 0.0 0
0.125 0.0 0
0.125 0.025 0
0.175 0.025 0
0.175 0.0 0
0.3 0.0 0
0.3 0.1 0
0.175 0.1 0
0.175 0.07500000000000001 0
0.125 0.07500000000000001 0
0.125 0.1 0
0.0 0.1 0
0.03125000004370471 0.0 0
0.0625000001307804 0.0 0
0.09374999998068687 0.0 0
0.125 0.01250000001946666 0
0.1500000000542101 0.025 0
0.175 0.01249999996954493 0
0.2062499999498556 0.0 0
0.2375000000298155 0.0 0
0.2687499999363031 0.0 0
0.3 0.0333333333833971 0
0.3 0.06666666665533266 0
0.2687499999857699 0.1 0
0.2374999999335926 0.1 0
0.2062499998895469 0.09999999999999999 0
0.175 0.08749999992410584 0
0.1499999998970008 0.07500000000000001 0
0.125 0.08749999998373698 0
0.09374999993189857 0.09999999999999999 0
0.0624999998448236 0.1 0
0.03124999993393145 0.09999999999999999 0
0.0 0.0333333333833971 0
0.0 0.06666666665533266 0
0.1378547570355081 0.05872292154631246 0
0.1205274442651983 0.05862678463973545 0
0.07803612283544163 0.02746894678379668 0
0.2226162665830209 0.07211648701237751 0
0.04657850476242389 0.07368042341935963 0
0.1622706517654054 0.03938231233726987 0
0.252980499236 0.02602455144963511 0
0.109560885362774 0.06910636912149352 0
0.1035428582731431 0.05536550924987886 0
0.09446340455586462 0.07339030772034122 0
0.1297704041436086 0.04158982110107774 0
0.1132865766637887 0.01593857993116043 0
0.186753216184187 0.08404751813713929 0
0.1877801982831638 0.06703918828045416 0
0.1733905086174061 0.0598112640259766 0
0.1856181996521408 0.04946247546871016 0
0.1868846907912053 0.01597385514967477 0
0.1131718100429242 0.03296260135460721 0
0.04701194323136633 0.02605904576954292 0
0.1472836510273114 0.04403708240920157 0
0.156522442137825 0.05549035706134775 0
0.2530435320912519 0.07390570197147181 0
0.2225760006839336 0.02724783760424724 0
0.02677278634880424 0.04999031169197893 0
0.0585714362847925 0.05091877290869405 0
0.1878893412851503 0.03238808265173287 0
0.2732128773237721 0.04999740635679935 0
0.2405675714137089 0.04967440931258933 0
0.2028012289770727 0.05786760313150688 0
0.09855331488684695 0.02421843491374789 0
0.2022125407954209 0.02420632934680947 0
0.2019215881935539 0.07550588152163751 0
0.1106342982879173 0.08513466862109817 0
0.1763847799930755 0.03897617889497943 0
0.08376496491711016 0.05310692347303086 0
0.1153646765920849 0.04606322378801621 0
0.07093261472684372 0.07688653339035037 0
0.02248813842537181 0.07689914103870149 0
0.02248813853232256 0.02310085904459931 0
0.2775118614781718 0.07689914096938054 0
0.2775118615121814 0.02310085899762184 0
0.2019844792914555 0.04127381659182398 0
0.09873895792459182 0.03986427326051295 0
0.2189762525642749 0.04875447148100505 0
0.1708373164331706 0.04862451755765676 0
POLYGONS 122 488
3 27 9 34
3 34 9 35
3 2 44 51
3 9 28 66
3 10 29 66
3 28 10 66
3 38 57 58
3 57 52 58
3 13 36 52
3 18 19 56
3 19 40 56
3 60 55 61
3 40 60 61
3 13 14 36
3 16 39 53
3 43 29 70
3 34 35 44
3 18 56 64
3 41 9 66
3 14 45 63
3 52 36 58
3 34 53 54
3 56 40 61
3 68 43 70
3 34 44 53
3 53 39 54
3 58 68 70
3 50 18 64
3 30 31 38
3 12 13 52
3 36 14 63
3 51 44 69
3 24 25 37
3 23 24 55
3 24 37 55
3 19 20 40
3 27 34 54
3 25 46 65
3 47 8 48
3 29 43 66
3 48 54 78
3 29 30 70
3 33 32 57
3 35 9 41
3 21 22 60
3 55 37 61
3 11 33 71
3 32 0 72
3 22 6 73
3 31 11 71
3 5 21 74
3 0 12 72
3 6 23 73
3 20 5 74
3 44 35 69
3 54 39 78
3 37 25 65
3 68 36 76
3 38 58 70
3 58 36 68
3 47 48 49
3 30 38 70
3 43 41 66
3 49 48 78
3 36 63 76
3 56 61 77
3 64 56 75
3 57 38 71
3 52 57 72
3 38 31 71
3 75 56 77
3 12 52 72
3 67 49 78
3 55 60 73
3 60 40 74
3 23 55 73
3 40 20 74
3 33 57 71
3 57 32 72
3 42 43 68
3 59 49 67
3 35 41 42
3 15 2 45
3 45 2 51
3 35 42 69
3 26 8 46
3 60 22 73
3 59 50 64
3 21 60 74
3 61 37 77
3 46 8 47
3 47 49 62
3 42 41 43
3 3 59 67
3 3 17 50
3 45 51 63
3 3 50 59
3 49 59 75
3 51 69 76
3 37 62 77
3 42 68 76
3 69 42 76
3 46 47 65
3 59 64 75
3 62 37 65
3 62 49 75
3 47 62 65
3 63 51 76
3 39 67 78
3 62 75 77
3 14 1 45
3 1 15 45
3 2 16 44
3 16 3 39
3 39 3 67
3 17 4 50
3 4 18 50
3 25 7 46
3 7 26 46
3 8 27 48
3 44 16 53
3 48 27 54
CELL_DATA 122
SCALARS mises double 1
LOOKUP_TABLE default
11721635.900113003 8167025.813438663 6954807.465521806 2626572.170645275 1252086.1494513645 1437660.747083851 5514099.543089907 5507273.062280587 5415020.737282391 4359780.719982329 5204988.494006102 4550834.479532198 4567830.366542555 4146447.8629101017 9760276.98219081 5430622.709052963 8148796.073853438 5464261.111093395 7376991.870832907 3629446.4106817897 5532484.402463709 9381371.65789951 5263306.442855025 5776166.088874138 9053598.592185523 9411336.821442539 6309962.088437219 3643863.1141854743 4839677.1425401475 4814255.4943182245 5425315.598922446 8448878.896132888 4393212.273845335 5863461.32455803 5200097.816890822 5866205.099541598 9590994.98263583 3673407.876390646 6796846.280753861 3826085.3942683833 8922337.201155331 3959891.5149987354 4663732.06723254 6572542.378246844 5359264.2849885225 5260162.86803071 4710136.574945478 4718860.069436902 5645314.067271298 5253685.387134074 5645072.964654925 5244470.194556927 7652822.3269029325 7653092.077181396 7669233.440024927 8296310.503217905 5443639.8290326 6968983.776867435 5490195.559164132 6303036.6350990785 8152562.961258457 5300011.276785385 5902486.477228457 7479932.589215663 5732870.416843623 5993680.125349873 5714424.5786370365 5075226.145639759 5102298.567639897 5220315.964924608 6735883.512871912 5238105.961137632 7680522.9401860805 4905439.113475876 4904628.197939072 4878449.139532732 4878969.51093722 4825329.834116904 4833074.653961078 7304288.716303743 8297500.586083181 8051880.942194756 2933685.9864870547 7827612.214678258 7451029.52386292 2973636.905430159 3668838.3534033885 5385023.515503219 3669370.257406607 5906500.988265332 7758532.919660888 6925023.331726737 6966649.179076002 6537596.216073714 2953496.8898936603 5461247.939665197 7578980.9807102345 6933397.602611006 7090953.024166766 6720289.277001301 7050006.135457003 7930547.00307229 5417492.423874313 7423757.774390045 5680509.039570716 8039443.6144865565 7377731.085999448 7387263.663591812 8567906.079553757 6465222.824056544 1223585.857369348 935421.2600669153 11364947.022567848 12057477.813540978 8423562.548395941 964623.1077630429 1271549.9443067252 1295707.4775290643 922261.9269074668 11301123.821217192 9161408.058172714 9194424.226159055
VECTORS principal_stress_1 float
12345486.881785713 -1136590.984484283 0.0
9015898.926734209 -1912551.4504199144 0.0
7559642.7524389755 1478542.7145705451 0.0
4475497.33554706 -4054982.1912691463 0.0
1581436.8978422692 -1359098.3180237089 0.0
1169928.6834760522 -161869.15998279557 0.0
5433345.276661382 -64983.75528315464 0.0
5423849.412495269 51156.33199113878 0.0
5375485.2850278905 301345.29300553194 0.0
4338299.297288358 -765211.9391962602 0.0
5234922.811420106 -607249.1529826222 0.0
4600540.986465591 359819.7586571924 0.0
4618158.826253497 -367383.90066743345 0.0
4008625.8403622205 550421.3162466825 0.0
10083919.517774774 -328356.73811389535 0.0
5353588.254652275 -874702.9406524405 0.0
8848041.873624627 272108.29385106725 0.0
5416509.549493318 -850726.5195600115 0.0
7582684.217685506 -1410898.0711918732 0.0
3432051.149665708 351985.8308577182 0.0
5308909.802900717 266404.3586443305 0.0
9913133.051827073 -375338.4988019215 0.0
5203501.156576442 -489243.7364819396 0.0
5357063.547153925 -448857.1739891128 0.0
9826360.149685761 62971.30344484897 0.0
10043678.299656564 -543506.3947958434 0.0
6013905.242304953 -273361.2576388163 0.0
3460929.9157053074 -422430.38399065426 0.0
4802119.829824945 -181532.63641550863 0.0
4757563.740076069 218239.51879773394 0.0
5334296.459945113 722859.9564021342 0.0
8642348.26459159 451793.2850378817 0.0
4367224.204285991 758626.6481849449 0.0
5874635.340133705 643568.3007481096 0.0
5230359.86732171 603676.313252397 0.0
5875555.494936651 -644595.5837488516 0.0
9866276.615036465 -206557.3723207936 0.0
3495698.5521460474 427308.9830942696 0.0
7265612.976301401 1310720.6336334604 0.0
3500372.475218387 -398482.6445720537 0.0
9666328.181319049 601790.2474919065 0.0
3852331.2915907144 -444355.5837258283 0.0
5088549.291157768 -2696.6205660381015 0.0
7058233.955233841 -1013357.0700995156 0.0
4173528.9808565844 55.11511097898327 0.0
5207008.56448007 478826.8304704873 0.0
5147746.004835436 -381002.50751653966 0.0
5157260.9406877 381293.55664098496 0.0
5328052.045444642 1108487.5458823324 0.0
5433551.485231518 -485602.5573771046 0.0
5327895.542204438 -1108446.9170561242 0.0
5423574.423878442 494317.2255861419 0.0
7535221.137021423 332975.34411921015 0.0
7535371.750291329 -332929.5329271164 0.0
8093493.035692097 -405704.3023722166 0.0
9017778.820386438 -38368.61865246164 0.0
5388832.515831178 828436.4627284278 0.0
6564816.697462772 264312.4096117767 0.0
5232465.266177984 -306461.47899342526 0.0
5845126.104047534 214771.844871861 0.0
8358876.998279017 281793.56886370864 0.0
5309976.095486084 -295969.5520420701 0.0
6119316.401052192 -1703897.2182279874 0.0
8131447.267864412 545967.9902358272 0.0
5429910.971736166 948000.2358505192 0.0
5678791.085681288 -374771.90256760124 0.0
5441242.727353711 -960671.2735102698 0.0
5240310.336053713 -245811.73063936224 0.0
5264969.168796432 235334.7811404947 0.0
5215337.776124044 -96763.06982789213 0.0
6500807.644376563 -391730.98465716274 0.0
5230826.165875543 102043.99647194993 0.0
8207244.807930232 -673906.4506153922 0.0
4997976.215430527 493910.1660074336 0.0
4996486.38380704 -495727.4818464271 0.0
4923401.812415717 733272.2047003602 0.0
4924510.63135235 -734437.3944251027 0.0
4979404.471109034 -169703.10832400058 0.0
4982515.628821106 163672.2534343927 0.0
6944721.990297684 -605154.9232352774 0.0
8513310.216121575 -405335.0834467191 0.0
8061801.401335228 -834642.557707976 0.0
4749686.059812328 4031021.7343700966 0.0
8212982.597096577 1602804.5442868469 0.0
7649474.492592227 124953.55357621374 0.0
4806700.255648456 4132006.4429370216 0.0
3713998.7265573987 39056.21398171172 0.0
5787406.6004378935 -1915389.988470775 0.0
3714159.354120971 -39235.09521656834 0.0
5597940.243455893 345750.7012352387 0.0
8155555.888431565 1710086.0850588805 0.0
6978639.769514928 648315.8999451343 0.0
6732826.798723048 -449519.98118686565 0.0
7232797.922264283 -1487744.8258932293 0.0
4786024.756137201 -4047581.5177208213 0.0
5758620.202904589 1766131.7465396568 0.0
7994666.722237547 -1690851.0500615789 0.0
6996577.191221429 -643228.8217329757 0.0
7128907.552558425 685009.5050224407 0.0
6501202.039890027 362798.6635132977 0.0
6639521.776458777 287017.1695004507 0.0
7725936.989099313 -23737.706158371646 0.0
5732753.2508034995 1787747.012241048 0.0
7307903.846916716 -738871.4056887215 0.0
5408729.875532642 917271.6028134335 0.0
7786316.820890234 -14044.792476687038 0.0
7240242.347458568 721947.1241088321 0.0
7238115.407452533 722834.4248220737 0.0
9288365.409581928 -128289.37625285002 0.0
6003923.631706313 14604.258475369443 0.0
1638194.213510015 1430052.6084087426 0.0
593903.7314136197 18518.69487886112 0.0
12126361.116517916 1804713.336627512 0.0
12629911.776544942 -1242456.346608123 0.0
9380400.424186734 -2118304.7196216327 0.0
626786.8363494934 -29341.316629965953 0.0
1701034.7500780192 -1484489.0496601483 0.0
1748203.0669989383 1489829.1938966948 0.0
602789.0345612617 40052.64350117264 0.0
12139687.674102558 2046273.9383765496 0.0
9544108.253450492 394773.6703690427 0.0
9657590.2354657 383163.0489068979 0.0
VECTORS principal_stress_2 float
1136590.9844842844 12345486.881785713 0.0
1912551.4504199142 9015898.92673421 0.0
-1478542.714570545 7559642.7524389755 0.0
4054982.191269147 4475497.335547059 0.0
1359098.318023709 1581436.897842269 0.0
161869.15998279574 1169928.683476052 0.0
64983.75528315543 5433345.276661382 0.0
-51156.331991138184 5423849.412495269 0.0
-301345.2930055319 5375485.2850278905 0.0
765211.9391962606 4338299.297288358 0.0
607249.1529826227 5234922.811420106 0.0
-359819.7586571917 4600540.986465591 0.0
367383.90066743374 4618158.826253497 0.0
-550421.3162466827 4008625.8403622205 0.0
328356.7381138958 10083919.517774774 0.0
874702.9406524407 5353588.254652275 0.0
-272108.29385106696 8848041.873624627 0.0
850726.5195600116 5416509.549493318 0.0
1410898.0711918739 7582684.217685506 0.0
-351985.8308577177 3432051.149665708 0.0
-266404.3586443302 5308909.802900717 0.0
375338.4988019218 9913133.051827073 0.0
489243.7364819399 5203501.156576442 0.0
448857.17398911243 5357063.547153925 0.0
-62971.303444848054 9826360.149685761 0.0
543506.394795844 10043678.299656564 0.0
273361.2576388166 6013905.242304953 0.0
422430.3839906542 3460929.9157053074 0.0
181532.636415509 4802119.829824945 0.0
-218239.51879773324 4757563.740076069 0.0
-722859.9564021336 5334296.459945113 0.0
-451793.285037882 8642348.26459159 0.0
-758626.6481849443 4367224.204285991 0.0
-643568.3007481087 5874635.340133705 0.0
-603676.3132523965 5230359.86732171 0.0
644595.583748852 5875555.494936651 0.0
206557.37232079456 9866276.615036465 0.0
-427308.98309426935 3495698.5521460474 0.0
-1310720.63363346 7265612.976301401 0.0
398482.6445720536 3500372.475218387 0.0
-601790.2474919062 9666328.181319049 0.0
444355.58372582827 3852331.2915907144 0.0
2696.620566038804 5088549.291157768 0.0
1013357.0700995158 7058233.955233841 0.0
-55.11511097845162 4173528.9808565844 0.0
-478826.83047048707 5207008.56448007 0.0
381002.5075165403 5147746.004835436 0.0
-381293.55664098455 5157260.9406877 0.0
-1108487.5458823324 5328052.045444642 0.0
485602.5573771051 5433551.485231518 0.0
1108446.9170561251 5327895.542204438 0.0
-494317.22558614117 5423574.423878442 0.0
-332975.3441192097 7535221.137021423 0.0
332929.53292711696 7535371.750291329 0.0
405704.3023722165 8093493.035692097 0.0
38368.61865246229 9017778.820386438 0.0
-828436.4627284276 5388832.515831178 0.0
-264312.40961177595 6564816.697462772 0.0
306461.4789934259 5232465.266177983 0.0
-214771.84487186075 5845126.104047534 0.0
-281793.5688637073 8358876.998279017 0.0
295969.55204207014 5309976.095486084 0.0
1703897.2182279874 6119316.401052192 0.0
-545967.9902358263 8131447.267864412 0.0
-948000.2358505185 5429910.971736166 0.0
374771.902567602 5678791.085681287 0.0
960671.2735102696 5441242.727353711 0.0
245811.73063936268 5240310.336053713 0.0
-235334.78114049454 5264969.168796432 0.0
96763.0698278928 5215337.776124044 0.0
391730.984657163 6500807.644376563 0.0
-102043.99647194984 5230826.165875543 0.0
673906.4506153925 8207244.807930232 0.0
-493910.1660074335 4997976.215430527 0.0
495727.48184642696 4996486.38380704 0.0
-733272.2047003603 4923401.812415717 0.0
734437.394425103 4924510.63135235 0.0
169703.10832400087 4979404.471109034 0.0
-163672.25343439195 4982515.628821106 0.0
605154.9232352774 6944721.990297684 0.0
405335.0834467189 8513310.216121575 0.0
834642.5577079762 8061801.401335228 0.0
-4031021.7343700957 4749686.059812329 0.0
-1602804.5442868464 8212982.597096577 0.0
-124953.55357621388 7649474.492592227 0.0
-4132006.4429370207 4806700.255648456 0.0
-39056.213981711444 3713998.7265573987 0.0
1915389.9884707753 5787406.6004378935 0.0
39235.09521656881 3714159.354120971 0.0
-345750.70123523846 5597940.243455893 0.0
-1710086.0850588803 8155555.888431565 0.0
-648315.8999451345 6978639.769514928 0.0
449519.98118686595 6732826.798723048 0.0
1487744.825893229 7232797.922264283 0.0
4047581.517720822 4786024.756137201 0.0
-1766131.7465396565 5758620.202904589 0.0
1690851.050061579 7994666.722237547 0.0
643228.8217329757 6996577.191221429 0.0
-685009.5050224405 7128907.552558425 0.0
-362798.66351329756 6501202.039890028 0.0
-287017.1695004498 6639521.776458777 0.0
23737.70615837163 7725936.989099313 0.0
-1787747.0122410476 5732753.2508034995 0.0
738871.4056887226 7307903.846916716 0.0
-917271.6028134326 5408729.875532642 0.0
14044.79247668786 7786316.820890234 0.0
-721947.1241088321 7240242.347458568 0.0
-722834.424822074 7238115.407452533 0.0
128289.37625285125 9288365.409581928 0.0
-14604.258475369115 6003923.631706313 0.0
-1430052.6084087424 1638194.2135100155 0.0
-18518.694878861064 593903.7314136197 0.0
-1804713.336627512 12126361.116517916 0.0
1242456.3466081247 12629911.776544942 0.0
2118304.7196216322 9380400.424186734 0.0
29341.316629966048 626786.8363494934 0.0
1484489.0496601486 1701034.750078019 0.0
-1489829.1938966946 1748203.0669989383 0.0
-40052.64350117266 602789.0345612617 0.0
-2046273.9383765499 12139687.674102558 0.0
-394773.6703690428 9544108.253450492 0.0
-383163.0489068979 9657590.2354657 0.0
POINT_DATA 79
VECTORS displacements float
0.0 0.0 0.0
2.293434134216796e-05 -5.141830970667998e-08 0.0
3.306482912090967e-05 5.098650006058399e-07 0.0
6.201327095516518e-05 -2.8855751539362378e-08 0.0
7.241320499160534e-05 -5.792388154031141e-07 0.0
0.00010079322118603582 5.6376915042533475e-06 0.0
0.00010021716563871385 -4.7481215224370295e-06 0.0
7.172500056121246e-05 -1.3727372085187158e-07 0.0
6.174833971805629e-05 -7.681741830577826e-07 0.0
3.3213421816992165e-05 -3.587584460134332e-07 0.0
2.280102553233233e-05 2.0854261516330755e-07 0.0
0.0 0.0 0.0
8.017946334698148e-06 2.256179858230064e-06 0.0
1.5194350573259088e-05 3.284478801257712e-06 0.0
2.125257504811283e-05 3.984769466136321e-06 0.0
2.5748771345002158e-05 -4.1428926828876013e-07 0.0
4.716390240206018e-05 1.2903536502659948e-06 0.0
6.947006436664054e-05 -9.463810228717317e-07 0.0
7.416089235979621e-05 3.6693215416843207e-06 0.0
8.06213649013911e-05 2.875393312135809e-06 0.0
8.941015335442173e-05 2.481587290130751e-06 0.0
9.261450429907272e-05 2.6123687068347395e-06 0.0
9.242186912117416e-05 -1.7224947007126555e-06 0.0
8.883439431797843e-05 -1.951064348048502e-06 0.0
8.004792541305141e-05 -2.6921579997599576e-06 0.0
7.353979643699234e-05 -3.8660504878509325e-06 0.0
6.899143440980577e-05 2.127717999040101e-07 0.0
4.7696714121376594e-05 -1.608404293893719e-06 0.0
2.5788589921002856e-05 6.245619572180121e-07 0.0
2.1088754821989383e-05 -4.071002931298201e-06 0.0
1.5266862630168976e-05 -3.2463022249616693e-06 0.0
8.033079007788285e-06 -2.253499384850053e-06 0.0
0.0 0.0 0.0
0.0 0.0 0.0
4.1771708721545254e-05 -6.660762516045295e-08 0.0
3.4676165533792685e-05 -3.62760511115745e-07 0.0
1.9501520928785753e-05 2.1308460651358854e-06 0.0
7.540996524898562e-05 -1.8402372594328575e-06 0.0
1.1306180406869482e-05 -1.4233472124296405e-06 0.0
5.332252045827077e-05 -3.2145172800394943e-07 0.0
8.333805841119612e-05 1.1516098269155793e-06 0.0
2.9212460107455253e-05 -1.4210463826169633e-06 0.0
2.85008954182067e-05 -4.347630489757895e-07 0.0
2.387614093911999e-05 -2.339058820557476e-06 0.0
3.8316704086203976e-05 -1.0191020618941002e-07 0.0
2.6134310708245036e-05 2.0777302491738924e-06 0.0
6.862740691259779e-05 -2.1646807542997815e-06 0.0
6.446793659075842e-05 -1.3309499882137876e-06 0.0
5.818258912338927e-05 -2.1876014185750094e-07 0.0
6.223749889395091e-05 -1.7235145645678567e-07 0.0
6.90648006807368e-05 1.6783791645686182e-06 0.0
3.0681623186167885e-05 1.1820653210784943e-06 0.0
1.1453780547310433e-05 1.4316851560105025e-06 0.0
4.6251531667224435e-05 2.1237929028017456e-07 0.0
5.0476014947761307e-05 -5.342165031054992e-07 0.0
8.307125807462431e-05 -7.958460697860614e-07 0.0
7.568067896631415e-05 1.8905602626235831e-06 0.0
6.287752223984737e-06 -6.664251735781763e-09 0.0
1.4634850413822472e-05 -5.927720372253828e-08 0.0
6.464009207086683e-05 9.664407377965767e-07 0.0
8.666163676964002e-05 2.902233447341868e-07 0.0
7.947417303636908e-05 1.1668080524391823e-07 0.0
6.869164142054629e-05 -9.079443607711266e-07 0.0
2.4494566187045784e-05 2.4543692264800463e-06 0.0
7.070707158681251e-05 2.166909108884413e-06 0.0
7.03567438059938e-05 -2.3984891194702054e-06 0.0
2.5496062523471912e-05 -2.3532941930308544e-06 0.0
5.9411476982567055e-05 7.615282772442543e-08 0.0
2.1982842201119317e-05 -3.6819173978714695e-07 0.0
3.280964710483753e-05 2.3710153359701135e-07 0.0
1.7501179595794115e-05 -2.3289475340066735e-06 0.0
5.334027741091246e-06 -7.939288642578241e-07 0.0
5.343906529252337e-06 7.945287842450781e-07 0.0
8.904096248657239e-05 -7.911675003632434e-07 0.0
8.935148789747832e-05 1.4220770459453127e-06 0.0
6.849701053593923e-05 7.165809774319983e-07 0.0
2.64864161036206e-05 1.0903389070451428e-06 0.0
7.351746964914006e-05 6.397069761376959e-08 0.0
5.6638239089407e-05 -1.554830822368601e-07 0.0