# vtk DataFile Version 2.0
Really cool data
ASCII
DATASET POLYDATA
POINTS 79 float
0.0 0.0 0
0.125 0.0 0
0.125 0.025 0
0.175 0.025 0
0.175 0.0 0
0.3 0.0 0
0.3 0.1 0
0.175 0.1 0
0.175 0.07500000000000001 0
0.125 0.07500000000000001 0
0.125 0.1 0
0.0 0.1 0
0.03125000004370471 0.0 0
0.0625000001307804 0.0 0
0.09374999998068687 0.0 0
0.125 0.01250000001946666 0
0.1500000000542101 0.025 0
0.175 0.01249999996954493 0
0.2062499999498556 0.0 0
0.2375000000298155 0.0 0
0.2687499999363031 0.0 0
0.3 0.0333333333833971 0
0.3 0.06666666665533266 0
0.2687499999857699 0.1 0
0.2374999999335926 0.1 0
0.2062499998895469 0.09999999999999999 0
0.175 0.08749999992410584 0
0.1499999998970008 0.07500000000000001 0
0.125 0.08749999998373698 0
0.09374999993189857 0.09999999999999999 0
0.0624999998448236 0.1 0
0.03124999993393145 0.09999999999999999 0
0.0 0.0333333333833971 0
0.0 0.06666666665533266 0
0.1378547570355081 0.05872292154631246 0
0.1205274442651983 0.05862678463973545 0
0.07803612283544163 0.02746894678379668 0
0.2226162665830209 0.07211648701237751 0
0.04657850476242389 0.07368042341935963 0
0.1622706517654054 0.03938231233726987 0
0.252980499236 0.02602455144963511 0
0.109560885362774 0.06910636912149352 0
0.1035428582731431 0.05536550924987886 0
0.09446340455586462 0.07339030772034122 0
0.1297704041436086 0.04158982110107774 0
0.1132865766637887 0.01593857993116043 0
0.186753216184187 0.08404751813713929 0
0.1877801982831638 0.06703918828045416 0
0.1733905086174061 0.0598112640259766 0
0.1856181996521408 0.04946247546871016 0
0.1868846907912053 0.01597385514967477 0
0.1131718100429242 0.03296260135460721 0
0.04701194323136633 0.02605904576954292 0
0.1472836510273114 0.04403708240920157 0
0.156522442137825 0.05549035706134775 0
0.2530435320912519 0.07390570197147181 0
0.2225760006839336 0.02724783760424724 0
0.02677278634880424 0.04999031169197893 0
0.0585714362847925 0.05091877290869405 0
0.1878893412851503 0.03238808265173287 0
0.2732128773237721 0.04999740635679935 0
0.2405675714137089 0.04967440931258933 0
0.2028012289770727 0.05786760313150688 0
0.09855331488684695 0.02421843491374789 0
0.2022125407954209 0.02420632934680947 0
0.2019215881935539 0.07550588152163751 0
0.1106342982879173 0.08513466862109817 0
0.1763847799930755 0.03897617889497943 0
0.08376496491711016 0.05310692347303086 0
0.1153646765920849 0.04606322378801621 0
0.07093261472684372 0.07688653339035037 0
0.02248813842537181 0.07689914103870149 0
0.02248813853232256 0.02310085904459931 0
0.2775118614781718 0.07689914096938054 0
0.2775118615121814 0.02310085899762184 0
0.2019844792914555 0.04127381659182398 0
0.09873895792459182 0.03986427326051295 0
0.2189762525642749 0.04875447148100505 0
0.1708373164331706 0.04862451755765676 0
POLYGONS 122 488
3 27 9 34
3 34 9 35
3 2 44 51
3 9 28 66
3 10 29 66
3 28 10 66
3 38 57 58
3 57 52 58
3 13 36 52
3 18 19 56
3 19 40 56
3 60 55 61
3 40 60 61
3 13 14 36
3 16 39 53
3 43 29 70
3 34 35 44
3 18 56 64
3 41 9 66
3 14 45 63
3 52 36 58
3 34 53 54
3 56 40 61
3 68 43 70
3 34 44 53
3 53 39 54
3 58 68 70
3 50 18 64
3 30 31 38
3 12 13 52
3 36 14 63
3 51 44 69
3 24 25 37
3 23 24 55
3 24 37 55
3 19 20 40
3 27 34 54
3 25 46 65
3 47 8 48
3 29 43 66
3 48 54 78
3 29 30 70
3 33 32 57
3 35 9 41
3 21 22 60
3 55 37 61
3 11 33 71
3 32 0 72
3 22 6 73
3 31 11 71
3 5 21 74
3 0 12 72
3 6 23 73
3 20 5 74
3 44 35 69
3 54 39 78
3 37 25 65
3 68 36 76
3 38 58 70
3 58 36 68
3 47 48 49
3 30 38 70
3 43 41 66
3 49 48 78
3 36 63 76
3 56 61 77
3 64 56 75
3 57 38 71
3 52 57 72
3 38 31 71
3 75 56 77
3 12 52 72
3 67 49 78
3 55 60 73
3 60 40 74
3 23 55 73
3 40 20 74
3 33 57 71
3 57 32 72
3 42 43 68
3 59 49 67
3 35 41 42
3 15 2 45
3 45 2 51
3 35 42 69
3 26 8 46
3 60 22 73
3 59 50 64
3 21 60 74
3 61 37 77
3 46 8 47
3 47 49 62
3 42 41 43
3 3 59 67
3 3 17 50
3 45 51 63
3 3 50 59
3 49 59 75
3 51 69 76
3 37 62 77
3 42 68 76
3 69 42 76
3 46 47 65
3 59 64 75
3 62 37 65
3 62 49 75
3 47 62 65
3 63 51 76
3 39 67 78
3 62 75 77
3 14 1 45
3 1 15 45
3 2 16 44
3 16 3 39
3 39 3 67
3 17 4 50
3 4 18 50
3 25 7 46
3 7 26 46
3 8 27 48
3 44 16 53
3 48 27 54
CELL_DATA 122
SCALARS mises double 1
LOOKUP_TABLE default
1674519.5641816629 1166718.3087783165 993543.6068905108 375226.8564084165 178870.60449953235 205380.37785550058 787728.5269508585 786753.278206401 773574.2937981986 622826.1357606186 743569.9866598409 650119.0775502421 652547.3313540135 592349.4454467605 1394325.3370249222 775803.5396671776 1164113.6782002486 780609.0120111533 1053856.3085434763 518492.15760159853 790354.8251935795 1340196.0117343413 751901.0855172707 825166.737782554 1293371.2177428522 1344476.7741201844 901423.2368542049 520552.0964980255 691382.514369076 687750.705122276 775044.8430061289 1206982.611662461 627601.4398003666 837637.1411911881 742870.9159648529 838029.4911667518 1370142.1751626746 524772.330666252 970977.7414536513 546583.8398160464 1274619.504789853 565698.9945444949 666247.4389690518 938934.8561613767 765609.1835442656 751451.6770828846 672876.7649237996 674122.7558241098 806473.0404074271 750526.6331163773 806439.3927184155 749209.8755016075 1093260.255327691 1093298.945244602 1095604.8576965902 1185187.221171163 777662.5569523519 995569.038390877 784313.7563520302 900433.7381524313 1164651.7952999957 757144.5639308309 843212.8756707712 1068561.6962901547 818981.1612189393 856240.1368995163 816346.6981823539 725032.3843028583 728899.7212212548 745759.4554134273 962269.1803889979 748300.8180830847 1097217.6929015052 700776.8476516608 700661.3404103366 696921.043916232 696995.9065008209 689332.8899089263 690439.1817947506 1043469.9740849587 1185357.3061816387 1150268.8861927567 419096.0015094865 1118229.9803811875 1064432.7619199748 424803.2725925866 524119.74697198503 769289.7039754799 524195.7689408092 843785.7442112726 1108361.4818644414 989288.8872987113 995235.7157156928 933942.6380927104 421930.12491113297 780177.6961664002 1082711.9342750104 990485.5299592849 1012993.1230192687 960041.2263366678 1007143.6556585632 1132935.2915464572 773926.8974236134 1060537.003504985 811500.9756778269 1148491.9481077886 1053961.407190318 1055323.2034765 1223986.603787406 923603.256165036 174796.6298680916 133631.54690087365 1623563.6177045621 1722496.9923247618 1203366.431000446 137803.39373500575 181651.33892414032 185099.71928086097 131751.57209646353 1614445.985656698 1308772.5120354856 1313489.1110310485
VECTORS principal_stress_1 float
-15347.938401595195 -166707.0870576381 0.0
-39852.93156775737 -187869.45724783975 0.0
-24161.00574280673 123532.8341584634 0.0
88411.15129662758 97579.6818325511 0.0
-35311.35340084731 -41088.03347063955 0.0
9667.944625463504 69876.22428379847 0.0
272.83771604715514 22812.186050506363 0.0
221.23939567244648 -23456.90395563612 0.0
900.2520878396324 -16058.959483759758 0.0
8230.535745680569 46662.27173519659 0.0
1368.422626876272 11796.783560606944 0.0
-501.68784432498904 6414.421205889018 0.0
-500.0778265243536 -6286.173194256615 0.0
8303.279156463097 -60471.385107878996 0.0
-3081.737853006851 -94640.95868141275 0.0
10552.43047585268 64585.775613628764 0.0
-7188.731613970589 233753.25109890458 0.0
8385.127812214736 53387.4562792197 0.0
2913.888398406609 15660.306029073756 0.0
6505.416080022807 -63431.305408202745 0.0
3231.4577407829665 -64396.535270678905 0.0
-6205.344124719111 -163890.46723708842 0.0
2845.8888285516737 30268.319666884432 0.0
10099.41483699078 120535.46251694813 0.0
-1668.1994894727188 260314.27155444294 0.0
-10613.448763544984 -196130.2866932683 0.0
3775.7810998588398 83066.59819453837 0.0
7883.623435645 64589.73886968765 0.0
475.88107992375143 12588.579198010995 0.0
863.4887683976149 -18823.826578809763 0.0
7397.670449427588 -54590.61183390439 0.0
-2650.36785227291 50698.8544699177 0.0
8155.589168752704 -46949.69060631491 0.0
1891.9780918674749 -17270.399036626277 0.0
1324.2828558532522 -11473.824217020496 0.0
1959.7831737065665 17863.626567510466 0.0
-1699.3056468926586 -81167.85848581609 0.0
7760.149856699384 -63483.675026124256 0.0
-15356.486403880472 85124.38426877762 0.0
11125.033169309478 97725.1090409823 0.0
-14918.608761014219 239631.94633624906 0.0
5177.8950776070205 44889.65135711299 0.0
-77.04619802760621 -145386.92662127517 0.0
-17113.878309226006 -119201.57321846765 0.0
3.5283254574104714 -267178.42516422266 0.0
2558.998541716467 -27827.86275806074 0.0
-10599.2371596837 -143206.88096966583 0.0
-10607.955128415475 143479.98200204666 0.0
32781.549695872985 -157567.67277968276 0.0
-3773.0012893155467 -42217.23392494541 0.0
32776.11464148502 157542.69546162678 0.0
-3783.204231804761 41508.749138966334 0.0
1641.1681005921719 -37139.58039055326 0.0
1642.2980058595904 37171.006999919795 0.0
-6413.279233973897 -127940.05514019175 0.0
-1038.686999013887 -244122.6697671869 0.0
8219.360004145745 -53465.48159382728 0.0
4431.888246815015 -110076.30707432439 0.0
4360.975178359929 74458.46447775686 0.0
4461.329936361727 -121417.38636810466 0.0
-1979.7121144440127 58724.44187909816 0.0
104.31288522092262 1871.4726672139075 0.0
23000.225832179072 82602.20021318544 0.0
-14167.127172412997 211000.0029302818 0.0
23107.372361507725 -132353.31592631407 0.0
6023.975538513367 91279.251070055 0.0
22244.39456594103 125992.2655062295 0.0
-2182.6391585597244 -46530.35277334563 0.0
-2057.3235873478848 46026.9629721999 0.0
35.88285512292278 1934.014807205119 0.0
4277.379460810888 70983.46106339675 0.0
51.608916799882074 -2645.4988213199 0.0
-12775.240913190473 -155584.69511472425 0.0
-1318.235574179464 13339.490659489906 0.0
-1292.1176858933936 -13023.382120748343 0.0
2824.023675866587 -18961.312313410126 0.0
2816.1128032579163 18882.450082197072 0.0
-1525.4715924517523 -44760.17052970968 0.0
-1425.5795487497567 43397.535212776005 0.0
9763.135155183249 112041.15971487801 0.0
-2803.731071887739 -58887.16114724912 0.0
2300.397114394456 22219.505235127686 0.0
64335.98904237403 -75806.02895125635 0.0
-5663.367296426984 29019.843506381018 0.0
-957.2091752274036 58598.9510535341 0.0
63141.18409403982 -73451.1792075134 0.0
-137.07063254031723 13034.549507062713 0.0
24324.777637429295 73498.02364031142 0.0
-136.5164431424401 -12923.2214549236 0.0
5472.137107820731 -88597.64108689119 0.0
-3969.068965000229 18928.85045490799 0.0
167.29801408812952 -1800.83902704697 0.0
4850.868647282198 72655.40975347697 0.0
-33708.87383845159 -163878.55525845144 0.0
65743.09748779939 77737.30825288619 0.0
24232.958994383658 -79013.58860381162 0.0
-5534.599649505526 -26168.644267747593 0.0
-123.60249535564411 -1344.4584113216204 0.0
772.3201771009996 -8037.5514546304685 0.0
3671.7859868516207 -65796.88667151229 0.0
4852.5328281608945 -112252.85734519367 0.0
173.21925969476783 56377.860471069216 0.0
24423.238523528576 -78317.7927761679 0.0
5495.612740219014 54355.0733946396 0.0
20534.67076832702 -121083.5339589885 0.0
124.82284643139451 69200.7539743562 0.0
5931.699825826541 -59487.6589118294 0.0
6264.717601392479 -62731.86145657073 0.0
-3336.0607580447786 -241536.37857126637 0.0
292.0614011478153 -120068.70127757429 0.0
-21603.669497541112 24748.045039290664 0.0
2164.88226365455 -69428.84813783751 0.0
-25464.667695489396 171104.0473412143 0.0
-14114.911773269474 -143481.974973835 0.0
-48828.14244882561 -216223.6263255948 0.0
3262.3046799858716 69689.08912177681 0.0
-22645.169493654605 -25948.47044438022 0.0
-21465.11198080633 25187.702558151883 0.0
4425.988550579524 -66610.76853280772 0.0
-30148.444124405145 178858.11311303696 0.0
-4663.776953230779 112752.18043283575 0.0
-5558.911030693998 140111.85327763343 0.0
VECTORS principal_stress_2 float
166707.0870576381 -15347.93840159517 0.0
187869.45724783975 -39852.93156775738 0.0
-123532.8341584634 -24161.005742806723 0.0
-97579.68183255107 88411.15129662759 0.0
41088.033470639544 -35311.35340084731 0.0
-69876.22428379847 9667.944625463508 0.0
-22812.186050506363 272.83771604715656 0.0
23456.90395563612 221.23939567244506 0.0
16058.959483759758 900.2520878396314 0.0
-46662.271735196584 8230.535745680583 0.0
-11796.783560606944 1368.4226268762754 0.0
-6414.421205889018 -501.6878443249887 0.0
6286.173194256615 -500.0778265243555 0.0
60471.385107878996 8303.279156463093 0.0
94640.95868141275 -3081.7378530068568 0.0
-64585.775613628764 10552.430475852683 0.0
-233753.25109890458 -7188.7316139705745 0.0
-53387.4562792197 8385.12781221475 0.0
-15660.306029073754 2913.88839840661 0.0
63431.305408202745 6505.416080022804 0.0
64396.535270678905 3231.4577407829624 0.0
163890.46723708842 -6205.344124719121 0.0
-30268.319666884432 2845.888828551676 0.0
-120535.46251694813 10099.414836990789 0.0
-260314.27155444294 -1668.1994894727027 0.0
196130.2866932683 -10613.448763544953 0.0
-83066.59819453837 3775.781099858845 0.0
-64589.738869687644 7883.623435645005 0.0
-12588.579198010995 475.8810799237522 0.0
18823.826578809763 863.4887683976137 0.0
54590.61183390439 7397.670449427585 0.0
-50698.8544699177 -2650.367852272907 0.0
46949.69060631491 8155.589168752701 0.0
17270.399036626277 1891.978091867474 0.0
11473.824217020496 1324.2828558532517 0.0
-17863.626567510462 1959.7831737065676 0.0
81167.85848581609 -1699.3056468926634 0.0
63483.67502612426 7760.1498566993805 0.0
-85124.38426877762 -15356.486403880466 0.0
-97725.1090409823 11125.033169309483 0.0
-239631.94633624906 -14918.608761014204 0.0
-44889.65135711299 5177.895077607024 0.0
145386.92662127517 -77.04619802764739 0.0
119201.57321846766 -17113.878309225987 0.0
267178.42516422266 3.5283254573941116 0.0
27827.86275806074 2558.9985417164653 0.0
143206.88096966583 -10599.237159683742 0.0
-143479.98200204666 -10607.955128415466 0.0
157567.67277968276 32781.54969587297 0.0
42217.23392494541 -3773.001289315559 0.0
-157542.69546162678 32776.11464148507 0.0
-41508.749138966334 -3783.204231804759 0.0
37139.58039055326 1641.1681005921696 0.0
-37171.006999919795 1642.2980058595929 0.0
127940.05514019175 -6413.279233973876 0.0
244122.66976718692 -1038.6869990138478 0.0
53465.48159382728 8219.360004145743 0.0
110076.30707432439 4431.888246815009 0.0
-74458.46447775686 4360.975178359933 0.0
121417.38636810466 4461.32993636172 0.0
-58724.44187909816 -1979.712114444009 0.0
-1871.4726672139075 104.31288522092233 0.0
-82602.20021318544 23000.225832179076 0.0
-211000.0029302818 -14167.127172412986 0.0
132353.31592631407 23107.372361507718 0.0
-91279.251070055 6023.975538513373 0.0
-125992.2655062295 22244.39456594104 0.0
46530.35277334563 -2182.639158559717 0.0
-46026.9629721999 -2057.323587347882 0.0
-1934.014807205119 35.88285512292332 0.0
-70983.46106339675 4277.379460810893 0.0
2645.4988213199 51.60891679988191 0.0
155584.69511472425 -12775.240913190484 0.0
-13339.490659489906 -1318.2355741794634 0.0
13023.382120748343 -1292.1176858933916 0.0
18961.312313410126 2824.023675866586 0.0
-18882.450082197072 2816.112803257917 0.0
44760.17052970968 -1525.4715924517552 0.0
-43397.535212776005 -1425.579548749754 0.0
-112041.15971487801 9763.135155183256 0.0
58887.16114724912 -2803.7310718877425 0.0
-22219.505235127686 2300.3971143944573 0.0
75806.02895125636 64335.98904237402 0.0
-29019.843506381018 -5663.367296426982 0.0
-58598.9510535341 -957.2091752274 0.0
73451.1792075134 63141.18409403981 0.0
-13034.549507062713 -137.07063254031644 0.0
-73498.02364031142 24324.7776374293 0.0
12923.2214549236 -136.5164431424409 0.0
88597.64108689119 5472.137107820726 0.0
-18928.85045490799 -3969.068965000228 0.0
1800.83902704697 167.29801408812943 0.0
-72655.40975347697 4850.868647282203 0.0
163878.5552584514 -33708.8738384516 0.0
-77737.30825288619 65743.09748779939 0.0
79013.58860381162 24232.95899438365 0.0
26168.644267747593 -5534.5996495055215 0.0
1344.4584113216204 -123.60249535564421 0.0
8037.5514546304685 772.3201771009992 0.0
65796.88667151229 3671.7859868516166 0.0
112252.85734519367 4852.532828160887 0.0
-56377.860471069216 173.21925969475876 0.0
78317.7927761679 24423.238523528573 0.0
-54355.0733946396 5495.612740219019 0.0
121083.5339589885 20534.670768327014 0.0
-69200.7539743562 124.8228464313834 0.0
59487.6589118294 5931.6998258265385 0.0
62731.86145657073 6264.717601392475 0.0
241536.37857126637 -3336.0607580448473 0.0
120068.70127757429 292.06140114780794 0.0
-24748.045039290664 -21603.66949754111 0.0
69428.84813783751 2164.882263654546 0.0
-171104.0473412143 -25464.667695489385 0.0
143481.974973835 -14114.91177326945 0.0
216223.6263255948 -48828.14244882567 0.0
-69689.08912177681 3262.3046799858607 0.0
25948.47044438022 -22645.169493654605 0.0
-25187.702558151883 -21465.111980806327 0.0
66610.76853280774 4425.98855057952 0.0
-178858.11311303696 -30148.444124405138 0.0
-112752.18043283575 -4663.776953230772 0.0
-140111.85327763343 -5558.911030693989 0.0
POINT_DATA 79
VECTORS displacements float
0.0 0.0 0.0
-3.2763344774525683e-06 7.345472815232107e-09 0.0
-4.723547017272814e-06 -7.283785722941307e-08 0.0
-8.859038707880748e-06 4.122250219885321e-09 0.0
-1.0344743570229367e-05 8.274840220042104e-08 0.0
-1.4399031598005144e-05 -8.053845006077241e-07 0.0
-1.4316737948387654e-05 6.783030746337648e-07 0.0
-1.0246428651601744e-05 1.9610531550243682e-08 0.0
-8.821191388293738e-06 1.0973916900822938e-07 0.0
-4.744774545284586e-06 5.1251206573340104e-08 0.0
-3.2572893617617545e-06 -2.9791802166194633e-08 0.0
0.0 0.0 0.0
-1.1454209049568792e-06 -3.223114083185809e-07 0.0
-2.1706215104655864e-06 -4.6921125732253343e-07 0.0
-3.0360821497304066e-06 -5.692527808766216e-07 0.0
-3.6783959064288824e-06 5.9184181184101014e-08 0.0
-6.7377003431514605e-06 -1.8433623575230112e-07 0.0
-9.924294909520099e-06 1.351972889816522e-07 0.0
-1.0594413194256627e-05 -5.241887916692306e-07 0.0
-1.1517337843055897e-05 -4.1077047316231686e-07 0.0
-1.2772879050631706e-05 -3.5451247001875784e-07 0.0
-1.3230643471296112e-05 -3.7319552954792233e-07 0.0
-1.3203124160167714e-05 2.460706715302819e-07 0.0
-1.2690627759711166e-05 2.7872347829256175e-07 0.0
-1.1435417916150162e-05 3.8459399996564766e-07 0.0
-1.0505685205284582e-05 5.522929268358012e-07 0.0
-9.855919201400796e-06 -3.039597141488293e-08 0.0
-6.813816303053784e-06 2.2977204198480327e-07 0.0
-3.684084274428972e-06 -8.92231367454378e-08 0.0
-3.0126792602841903e-06 5.815718473283078e-07 0.0
-2.1809803757384205e-06 4.637574607088068e-07 0.0
-1.1475827153983246e-06 3.219284835500068e-07 0.0
0.0 0.0 0.0
0.0 0.0 0.0
-5.967386960220743e-06 9.51537502291211e-09 0.0
-4.953737933398946e-06 5.182293015938459e-08 0.0
-2.7859315612551106e-06 -3.044065807337014e-07 0.0
-1.0772852178426486e-05 2.6289103706178406e-07 0.0
-1.6151686295527814e-06 2.0333531606137576e-07 0.0
-7.6175029226101125e-06 4.592167542911638e-08 0.0
-1.1905436915885167e-05 -1.6451568955943686e-07 0.0
-4.173208586779316e-06 2.0300662608813053e-07 0.0
-4.071556488315238e-06 6.210900699653496e-08 0.0
-3.4108772770171337e-06 3.341512600796338e-07 0.0
-5.473814869457707e-06 1.4558600884192537e-08 0.0
-3.7334729583207213e-06 -2.968186070248486e-07 0.0
-9.80391527322823e-06 3.0924010775707937e-07 0.0
-9.209705227251189e-06 1.901357126019371e-07 0.0
-8.311798446198461e-06 3.1251448836761624e-08 0.0
-8.891071270564413e-06 2.462163663665259e-08 0.0
-9.866400097248131e-06 -2.397684520812629e-07 0.0
-4.383089026595414e-06 -1.6886647443979168e-07 0.0
-1.6362543639014902e-06 -2.045264508586443e-07 0.0
-6.607361666746346e-06 -3.033989861146772e-08 0.0
-7.21085927825161e-06 7.631664330076806e-08 0.0
-1.1867322582089165e-05 1.1369229568365187e-07 0.0
-1.0811525566616318e-05 -2.700800375177062e-07 0.0
-8.982503177121049e-07 9.52035962254147e-10 0.0
-2.090692916260352e-06 8.468171960360657e-09 0.0
-9.234298867266691e-06 -1.3806296254240007e-07 0.0
-1.2380233824234274e-05 -4.146047781925135e-08 0.0
-1.135345329090986e-05 -1.6668686463479284e-08 0.0
-9.813091631506601e-06 1.297063372529768e-07 0.0
-3.4992237410065416e-06 -3.506241752114404e-07 0.0
-1.010101022668751e-05 -3.095584441263851e-07 0.0
-1.0050963400856234e-05 3.42641302781417e-07 0.0
-3.6422946462102667e-06 3.3618488471868625e-07 0.0
-8.487353854652436e-06 -1.0878975389229918e-08 0.0
-3.1404060287313294e-06 5.25988199695886e-08 0.0
-4.6870924435482135e-06 -3.3871647656722826e-08 0.0
-2.5001685136848713e-06 3.327067905723788e-07 0.0
-7.620039630130341e-07 1.1341840917968871e-07 0.0
-7.6341521846462e-07 -1.1350411203501145e-07 0.0
-1.2720137498081743e-05 1.1302392862323578e-07 0.0
-1.2764498271068342e-05 -2.0315386370655754e-07 0.0
-9.785287219419889e-06 -1.0236871106175457e-07 0.0
-3.783773729088656e-06 -1.5576270100645417e-07 0.0
-1.0502495664162858e-05 -9.13867108773177e-09 0.0
-8.091177012772424e-06 2.2211868890956332e-08 0.0