# vtk DataFile Version 2.0
Really cool data
ASCII
DATASET POLYDATA
POINTS 79 float
0.0 0.0 0
0.125 0.0 0
0.125 0.025 0
0.175 0.025 0
0.175 0.0 0
0.3 0.0 0
0.3 0.1 0
0.175 0.1 0
0.175 0.07500000000000001 0
0.125 0.07500000000000001 0
0.125 0.1 0
0.0 0.1 0
0.03125000004370471 0.0 0
0.0625000001307804 0.0 0
0.09374999998068687 0.0 0
0.125 0.01250000001946666 0
0.1500000000542101 0.025 0
0.175 0.01249999996954493 0
0.2062499999498556 0.0 0
0.2375000000298155 0.0 0
0.2687499999363031 0.0 0
0.3 0.0333333333833971 0
0.3 0.06666666665533266 0
0.2687499999857699 0.1 0
0.2374999999335926 0.1 0
0.2062499998895469 0.09999999999999999 0
0.175 0.08749999992410584 0
0.1499999998970008 0.07500000000000001 0
0.125 0.08749999998373698 0
0.09374999993189857 0.09999999999999999 0
0.0624999998448236 0.1 0
0.03124999993393145 0.09999999999999999 0
0.0 0.0333333333833971 0
0.0 0.06666666665533266 0
0.1378547570355081 0.05872292154631246 0
0.1205274442651983 0.05862678463973545 0
0.07803612283544163 0.02746894678379668 0
0.2226162665830209 0.07211648701237751 0
0.04657850476242389 0.07368042341935963 0
0.1622706517654054 0.03938231233726987 0
0.252980499236 0.02602455144963511 0
0.109560885362774 0.06910636912149352 0
0.1035428582731431 0.05536550924987886 0
0.09446340455586462 0.07339030772034122 0
0.1297704041436086 0.04158982110107774 0
0.1132865766637887 0.01593857993116043 0
0.186753216184187 0.08404751813713929 0
0.1877801982831638 0.06703918828045416 0
0.1733905086174061 0.0598112640259766 0
0.1856181996521408 0.04946247546871016 0
0.1868846907912053 0.01597385514967477 0
0.1131718100429242 0.03296260135460721 0
0.04701194323136633 0.02605904576954292 0
0.1472836510273114 0.04403708240920157 0
0.156522442137825 0.05549035706134775 0
0.2530435320912519 0.07390570197147181 0
0.2225760006839336 0.02724783760424724 0
0.02677278634880424 0.04999031169197893 0
0.0585714362847925 0.05091877290869405 0
0.1878893412851503 0.03238808265173287 0
0.2732128773237721 0.04999740635679935 0
0.2405675714137089 0.04967440931258933 0
0.2028012289770727 0.05786760313150688 0
0.09855331488684695 0.02421843491374789 0
0.2022125407954209 0.02420632934680947 0
0.2019215881935539 0.07550588152163751 0
0.1106342982879173 0.08513466862109817 0
0.1763847799930755 0.03897617889497943 0
0.08376496491711016 0.05310692347303086 0
0.1153646765920849 0.04606322378801621 0
0.07093261472684372 0.07688653339035037 0
0.02248813842537181 0.07689914103870149 0
0.02248813853232256 0.02310085904459931 0
0.2775118614781718 0.07689914096938054 0
0.2775118615121814 0.02310085899762184 0
0.2019844792914555 0.04127381659182398 0
0.09873895792459182 0.03986427326051295 0
0.2189762525642749 0.04875447148100505 0
0.1708373164331706 0.04862451755765676 0
POLYGONS 122 488
3 27 9 34
3 34 9 35
3 2 44 51
3 9 28 66
3 10 29 66
3 28 10 66
3 38 57 58
3 57 52 58
3 13 36 52
3 18 19 56
3 19 40 56
3 60 55 61
3 40 60 61
3 13 14 36
3 16 39 53
3 43 29 70
3 34 35 44
3 18 56 64
3 41 9 66
3 14 45 63
3 52 36 58
3 34 53 54
3 56 40 61
3 68 43 70
3 34 44 53
3 53 39 54
3 58 68 70
3 50 18 64
3 30 31 38
3 12 13 52
3 36 14 63
3 51 44 69
3 24 25 37
3 23 24 55
3 24 37 55
3 19 20 40
3 27 34 54
3 25 46 65
3 47 8 48
3 29 43 66
3 48 54 78
3 29 30 70
3 33 32 57
3 35 9 41
3 21 22 60
3 55 37 61
3 11 33 71
3 32 0 72
3 22 6 73
3 31 11 71
3 5 21 74
3 0 12 72
3 6 23 73
3 20 5 74
3 44 35 69
3 54 39 78
3 37 25 65
3 68 36 76
3 38 58 70
3 58 36 68
3 47 48 49
3 30 38 70
3 43 41 66
3 49 48 78
3 36 63 76
3 56 61 77
3 64 56 75
3 57 38 71
3 52 57 72
3 38 31 71
3 75 56 77
3 12 52 72
3 67 49 78
3 55 60 73
3 60 40 74
3 23 55 73
3 40 20 74
3 33 57 71
3 57 32 72
3 42 43 68
3 59 49 67
3 35 41 42
3 15 2 45
3 45 2 51
3 35 42 69
3 26 8 46
3 60 22 73
3 59 50 64
3 21 60 74
3 61 37 77
3 46 8 47
3 47 49 62
3 42 41 43
3 3 59 67
3 3 17 50
3 45 51 63
3 3 50 59
3 49 59 75
3 51 69 76
3 37 62 77
3 42 68 76
3 69 42 76
3 46 47 65
3 59 64 75
3 62 37 65
3 62 49 75
3 47 62 65
3 63 51 76
3 39 67 78
3 62 75 77
3 14 1 45
3 1 15 45
3 2 16 44
3 16 3 39
3 39 3 67
3 17 4 50
3 4 18 50
3 25 7 46
3 7 26 46
3 8 27 48
3 44 16 53
3 48 27 54
CELL_DATA 122
SCALARS mises double 1
LOOKUP_TABLE default
1674519.3018919858 1166717.7217758668 993544.1612124961 375222.90034606686 178868.5839833015 205379.90337909973 787728.490559331 786753.3069153446 773574.4639719448 622825.5781750118 743569.6335066025 650119.3117203442 652547.0931201051 592349.8816423867 1394325.2427790137 775803.022512775 1164113.759813176 780608.5187649234 1053855.7363005476 518492.4844692043 790354.9817207395 1340195.9056741241 751900.7965757753 825166.4688815915 1293371.2347392498 1344476.6247704946 901423.0944686453 520551.70617278013 691382.3998582218 687750.8447378451 775045.2674759616 1206982.7652863697 627601.9886109533 837637.4752460894 742871.2672490422 838029.156510313 1370142.1142869515 524772.7210979036 970978.264098162 546583.4687050085 1274619.6716964354 565698.6328412596 666247.4375813454 938934.4524406337 765609.1835889433 751451.9591955014 672876.5700435063 674122.9504911319 806473.7365121234 750526.371946214 806438.696624798 749210.1420130067 1093260.3902299611 1093298.8103618908 1095604.7167337858 1185187.2099260942 777663.0395438012 995569.1654236942 784313.5725270003 900433.855160443 1164651.893839607 757144.3962482142 843211.9625538265 1068561.8750863036 818981.7332966118 856239.9286628171 816346.1210224116 725032.2481827891 728899.8509940275 745759.3996710798 962268.992926222 748300.8767220925 1097217.4653703922 700777.1426301895 700661.044176986 696921.5019459397 696995.4478586259 689332.791097527 690439.2771442037 1043469.6985121974 1185357.1668845627 1150268.5709040924 419099.49548341 1118230.5683836113 1064432.8095257382 424806.771906918 524119.7781218557 769288.6008938574 524195.737646057 843785.9389078687 1108362.1185168042 989289.1674576255 995235.5079822238 933942.0754488114 421926.6287838551 780178.7127912184 1082711.294471222 990485.2531832716 1012993.413777221 960041.3994978066 1007143.7921203203 1132935.282108222 773927.9329005628 1060536.6909687591 811501.5281342058 1148491.942540788 1053961.716107095 1055323.5132905657 1223986.5670478777 923603.2638903563 174798.99193442942 133631.65484105976 1623564.0423635228 1722496.7091416651 1203365.8138485742 137803.2316394645 181648.9818770174 185102.07991516727 131751.80265443734 1614446.4660617409 1308772.6305165684 1313489.2232664784
VECTORS principal_stress_1 float
1763640.9831122397 -162370.14064061202 0.0
1287985.5609620307 -273221.63577427185 0.0
1079948.9646341356 211220.3877957891 0.0
639356.7622210068 -579283.1701813057 0.0
225919.55683461027 -194156.90257481573 0.0
167132.66906800604 -23124.165711827773 0.0
776192.1823801968 -9283.393611879133 0.0
774835.6303564666 7308.047427305719 0.0
767926.4692897011 43049.32757221925 0.0
619757.0424697665 -109315.99131375187 0.0
747846.1159171548 -86749.87899751862 0.0
657220.1409236533 51402.82266531569 0.0
659736.9751790687 -52483.41438106296 0.0
572660.8343374603 78631.61660666946 0.0
1440559.931110684 -46908.10544484302 0.0
764798.3220931769 -124957.56295034752 0.0
1264005.981946378 38872.613407294244 0.0
773787.07849905 -121532.35993714587 0.0
1083240.6025264976 -201556.86731312468 0.0
490293.02138081554 50283.69012253145 0.0
758415.6861286759 38057.76552061851 0.0
1416161.8645467267 -53619.785543131475 0.0
743357.3080823468 -69891.96235456405 0.0
765294.7924505553 -64122.45342701666 0.0
1403765.7356693987 8995.900492122048 0.0
1434811.1856652247 -77643.77068512076 0.0
859129.3203292785 -39051.60823411629 0.0
494418.5593864691 -60347.197712952366 0.0
686017.1185464185 -25933.233773643962 0.0
679651.9628680107 31177.07411396209 0.0
762042.3514207285 103265.708057448 0.0
1234621.180655939 64541.89786255033 0.0
623889.1720408552 108375.23545499386 0.0
839233.6200191019 91938.3286783018 0.0
747194.2667602514 86239.47332177222 0.0
839365.0707052395 -92085.0833926944 0.0
1409468.087862352 -29508.19604582824 0.0
499385.50744943245 61044.14044203852 0.0
1037944.7109001969 187245.80480477875 0.0
500053.2107454853 -56926.09208172145 0.0
1380904.0259027195 85970.03535599023 0.0
550333.0416558146 -63479.36910369015 0.0
726935.613022538 -385.23150943385656 0.0
1008319.1364619726 -144765.29572850102 0.0
596218.4258366607 7.873587280718944 0.0
743858.3663543027 68403.83292435453 0.0
735392.2864050614 -54428.92964521973 0.0
736751.5629553862 54470.50809156941 0.0
761150.2922063759 158355.36369747607 0.0
776221.6407473586 -69371.7939110148 0.0
761127.9346006378 -158349.55957944496 0.0
774796.3462683494 70616.74651230601 0.0
1076460.1624316322 47567.90630274383 0.0
1076481.6786130439 -47561.361846731794 0.0
1156213.2908131569 -57957.75748174756 0.0
1288254.1171980568 -5481.231236065953 0.0
769833.2165472995 118348.06610406132 0.0
937830.9567803934 37758.9156588247 0.0
747495.0380254259 -43780.211284774734 0.0
835018.0148639334 30681.69212455078 0.0
1194125.2854684254 40256.22412338636 0.0
758568.0136408691 -42281.364577438966 0.0
874188.0572931716 -243413.8883182839 0.0
1161635.3239806364 77995.42717655105 0.0
775701.5673908782 135428.60512150213 0.0
811255.86938304 -53538.84322394552 0.0
777320.3896219624 -137238.75335861015 0.0
748615.762293387 -35115.96151990879 0.0
752138.4526852041 33619.25444864205 0.0
745048.2537320057 -13823.295689698823 0.0
928686.80633951 -55961.569236739546 0.0
747260.880839363 14577.713781707202 0.0
1172463.54399004 -96272.3500879124 0.0
713996.6022043567 70558.59514391972 0.0
713783.7691152901 -70818.21169234934 0.0
703343.116059386 104753.17210005209 0.0
703501.5187646223 -104919.62777501617 0.0
711343.4958727184 -24243.301189143 0.0
711787.9469744436 23381.75049062731 0.0
992103.1414710957 -86450.70331932648 0.0
1216187.1737316535 -57905.01192095694 0.0
1151685.9144764547 -119234.65110113868 0.0
678526.5799731917 575860.2477671573 0.0
1173283.2281566563 228972.07775526453 0.0
1092782.0703703118 17850.507653743625 0.0
686671.4650926336 590286.6347052867 0.0
530571.2466510558 5579.459140245617 0.0
826772.3714911295 -273627.14121011423 0.0
530594.1934458613 -5605.013602367961 0.0
799705.7490651272 49392.95731931566 0.0
1165079.4126330754 244298.0121512674 0.0
996948.5385021275 92616.5571350197 0.0
961832.3998175795 -64217.14016955232 0.0
1033256.8460377483 -212534.97512760528 0.0
683717.8223053158 -578225.9311029774 0.0
822660.0289863719 252304.53521995252 0.0
1142095.246033937 -241550.1500088001 0.0
999511.027317347 -91889.83167613488 0.0
1018415.3646512022 97858.50071748711 0.0
928743.1485557109 51828.380501896754 0.0
948503.1109226804 41002.45278577851 0.0
1103705.2841570405 -3391.1008797680165 0.0
818964.7501147803 255392.43032014815 0.0
1043986.2638452495 -105553.0579555323 0.0
772675.6965046487 131038.80040191779 0.0
1112330.9744128846 -2006.3989252411495 0.0
1034320.3353512184 103135.30344411725 0.0
1034016.486778938 103262.06068886741 0.0
1326909.344225986 -18327.05375041109 0.0
857703.375958043 2086.3226393396685 0.0
234027.74478714576 204293.2297726782 0.0
84843.39020194895 2645.5278398378314 0.0
1732337.3023597056 257816.1909467863 0.0
1804273.1109349926 -177493.76380116038 0.0
1340057.2034552433 -302614.959945948 0.0
89540.97662135541 -4191.616661424741 0.0
243004.96429685745 -212069.8642371658 0.0
249743.29528556188 212832.7419852423 0.0
86112.71922303959 5721.806214451989 0.0
1734241.0963003633 292324.84833950526 0.0
1363444.036207217 56396.23862414768 0.0
1379655.7479236727 54737.57841527027 0.0
VECTORS principal_stress_2 float
162370.140640612 1763640.9831122397 0.0
273221.6357742718 1287985.5609620307 0.0
-211220.38779578914 1079948.9646341356 0.0
579283.1701813058 639356.7622210068 0.0
194156.9025748158 225919.55683461024 0.0
23124.165711827773 167132.66906800604 0.0
9283.393611879164 776192.1823801968 0.0
-7308.047427305621 774835.6303564666 0.0
-43049.32757221915 767926.4692897011 0.0
109315.99131375195 619757.0424697665 0.0
86749.87899751868 747846.1159171548 0.0
-51402.82266531569 657220.1409236533 0.0
52483.41438106296 659736.9751790687 0.0
-78631.61660666938 572660.8343374603 0.0
46908.10544484297 1440559.931110684 0.0
124957.56295034749 764798.3220931769 0.0
-38872.61340729424 1264005.981946378 0.0
121532.35993714594 773787.07849905 0.0
201556.86731312473 1083240.6025264976 0.0
-50283.69012253144 490293.02138081554 0.0
-38057.765520618545 758415.6861286759 0.0
53619.785543131446 1416161.8645467267 0.0
69891.96235456417 743357.3080823467 0.0
64122.45342701665 765294.7924505553 0.0
-8995.900492122113 1403765.7356693987 0.0
77643.77068512095 1434811.1856652247 0.0
39051.60823411625 859129.3203292785 0.0
60347.197712952395 494418.5593864691 0.0
25933.233773644057 686017.1185464185 0.0
-31177.074113962088 679651.9628680107 0.0
-103265.7080574479 762042.3514207285 0.0
-64541.89786255034 1234621.180655939 0.0
-108375.23545499377 623889.1720408552 0.0
-91938.32867830172 839233.6200191019 0.0
-86239.47332177225 747194.2667602514 0.0
92085.08339269452 839365.0707052395 0.0
29508.19604582841 1409468.087862352 0.0
-61044.140442038464 499385.5074494325 0.0
-187245.80480477872 1037944.7109001969 0.0
56926.092081721436 500053.2107454853 0.0
-85970.03535599017 1380904.0259027195 0.0
63479.36910369018 550333.0416558146 0.0
385.23150943395336 726935.613022538 0.0
144765.2957285011 1008319.1364619725 0.0
-7.873587280650215 596218.4258366607 0.0
-68403.83292435444 743858.3663543027 0.0
54428.92964521981 735392.2864050614 0.0
-54470.50809156942 736751.5629553862 0.0
-158355.36369747607 761150.2922063759 0.0
69371.79391101492 776221.6407473586 0.0
158349.55957944493 761127.9346006378 0.0
-70616.74651230594 774796.3462683494 0.0
-47567.90630274378 1076460.1624316322 0.0
47561.361846731816 1076481.6786130439 0.0
57957.75748174754 1156213.2908131569 0.0
5481.231236066017 1288254.1171980568 0.0
-118348.06610406123 769833.2165472995 0.0
-37758.91565882461 937830.9567803934 0.0
43780.21128477478 747495.0380254259 0.0
-30681.69212455079 835018.0148639334 0.0
-40256.2241233863 1194125.2854684254 0.0
42281.36457743909 758568.0136408691 0.0
243413.8883182839 874188.0572931716 0.0
-77995.4271765509 1161635.3239806364 0.0
-135428.605121502 775701.5673908783 0.0
53538.84322394561 811255.86938304 0.0
137238.75335861024 777320.3896219624 0.0
35115.961519908924 748615.762293387 0.0
-33619.25444864205 752138.4526852041 0.0
13823.295689698794 745048.2537320057 0.0
55961.5692367397 928686.80633951 0.0
-14577.713781707113 747260.880839363 0.0
96272.35008791246 1172463.54399004 0.0
-70558.5951439196 713996.6022043567 0.0
70818.21169234945 713783.76911529 0.0
-104753.17210005198 703343.1160593862 0.0
104919.62777501626 703501.5187646223 0.0
24243.301189143116 711343.4958727184 0.0
-23381.750490627262 711787.9469744436 0.0
86450.7033193265 992103.1414710957 0.0
57905.01192095714 1216187.1737316535 0.0
119234.65110113879 1151685.9144764547 0.0
-575860.2477671572 678526.5799731917 0.0
-228972.0777552645 1173283.2281566563 0.0
-17850.507653743527 1092782.0703703118 0.0
-590286.6347052867 686671.4650926336 0.0
-5579.45914024554 530571.2466510558 0.0
273627.1412101143 826772.3714911295 0.0
5605.013602368003 530594.1934458613 0.0
-49392.95731931566 799705.7490651272 0.0
-244298.01215126747 1165079.4126330754 0.0
-92616.55713501964 996948.5385021275 0.0
64217.14016955237 961832.3998175795 0.0
212534.97512760523 1033256.8460377484 0.0
578225.9311029774 683717.8223053158 0.0
-252304.53521995258 822660.0289863719 0.0
241550.1500088003 1142095.246033937 0.0
91889.83167613491 999511.027317347 0.0
-97858.50071748704 1018415.3646512023 0.0
-51828.380501896754 928743.1485557109 0.0
-41002.452785778456 948503.1109226804 0.0
3391.100879768099 1103705.2841570405 0.0
-255392.43032014815 818964.7501147803 0.0
105553.05795553225 1043986.2638452495 0.0
-131038.80040191773 772675.6965046488 0.0
2006.3989252411122 1112330.9744128846 0.0
-103135.30344411715 1034320.3353512184 0.0
-103262.06068886747 1034016.486778938 0.0
18327.0537504111 1326909.344225986 0.0
-2086.3226393395835 857703.375958043 0.0
-204293.22977267814 234027.7447871458 0.0
-2645.527839837831 84843.39020194895 0.0
-257816.19094678634 1732337.3023597056 0.0
177493.76380116036 1804273.1109349926 0.0
302614.959945948 1340057.2034552433 0.0
4191.61666142474 89540.97662135541 0.0
212069.86423716584 243004.96429685742 0.0
-212832.74198524223 249743.2952855619 0.0
-5721.806214451983 86112.71922303959 0.0
-292324.8483395052 1734241.0963003635 0.0
-56396.238624147605 1363444.036207217 0.0
-54737.57841527026 1379655.7479236727 0.0
POINT_DATA 79
VECTORS displacements float
0.0 0.0 0.0
3.2763344774525683e-06 -7.345472815232107e-09 0.0
4.723547017272814e-06 7.283785722941307e-08 0.0
8.859038707880748e-06 -4.122250219885321e-09 0.0
1.0344743570229367e-05 -8.274840220042104e-08 0.0
1.4399031598005144e-05 8.053845006077241e-07 0.0
1.4316737948387654e-05 -6.783030746337648e-07 0.0
1.0246428651601744e-05 -1.9610531550243682e-08 0.0
8.821191388293738e-06 -1.0973916900822938e-07 0.0
4.744774545284586e-06 -5.1251206573340104e-08 0.0
3.2572893617617545e-06 2.9791802166194633e-08 0.0
0.0 0.0 0.0
1.1454209049568792e-06 3.223114083185809e-07 0.0
2.1706215104655864e-06 4.6921125732253343e-07 0.0
3.0360821497304066e-06 5.692527808766216e-07 0.0
3.6783959064288824e-06 -5.9184181184101014e-08 0.0
6.7377003431514605e-06 1.8433623575230112e-07 0.0
9.924294909520099e-06 -1.351972889816522e-07 0.0
1.0594413194256627e-05 5.241887916692306e-07 0.0
1.1517337843055897e-05 4.1077047316231686e-07 0.0
1.2772879050631706e-05 3.5451247001875784e-07 0.0
1.3230643471296112e-05 3.7319552954792233e-07 0.0
1.3203124160167714e-05 -2.460706715302819e-07 0.0
1.2690627759711166e-05 -2.7872347829256175e-07 0.0
1.1435417916150162e-05 -3.8459399996564766e-07 0.0
1.0505685205284582e-05 -5.522929268358012e-07 0.0
9.855919201400796e-06 3.039597141488293e-08 0.0
6.813816303053784e-06 -2.2977204198480327e-07 0.0
3.684084274428972e-06 8.92231367454378e-08 0.0
3.0126792602841903e-06 -5.815718473283078e-07 0.0
2.1809803757384205e-06 -4.637574607088068e-07 0.0
1.1475827153983246e-06 -3.219284835500068e-07 0.0
0.0 0.0 0.0
0.0 0.0 0.0
5.967386960220743e-06 -9.51537502291211e-09 0.0
4.953737933398946e-06 -5.182293015938459e-08 0.0
2.7859315612551106e-06 3.044065807337014e-07 0.0
1.0772852178426486e-05 -2.6289103706178406e-07 0.0
1.6151686295527814e-06 -2.0333531606137576e-07 0.0
7.6175029226101125e-06 -4.592167542911638e-08 0.0
1.1905436915885167e-05 1.6451568955943686e-07 0.0
4.173208586779316e-06 -2.0300662608813053e-07 0.0
4.071556488315238e-06 -6.210900699653496e-08 0.0
3.4108772770171337e-06 -3.341512600796338e-07 0.0
5.473814869457707e-06 -1.4558600884192537e-08 0.0
3.7334729583207213e-06 2.968186070248486e-07 0.0
9.80391527322823e-06 -3.0924010775707937e-07 0.0
9.209705227251189e-06 -1.901357126019371e-07 0.0
8.311798446198461e-06 -3.1251448836761624e-08 0.0
8.891071270564413e-06 -2.462163663665259e-08 0.0
9.866400097248131e-06 2.397684520812629e-07 0.0
4.383089026595414e-06 1.6886647443979168e-07 0.0
1.6362543639014902e-06 2.045264508586443e-07 0.0
6.607361666746346e-06 3.033989861146772e-08 0.0
7.21085927825161e-06 -7.631664330076806e-08 0.0
1.1867322582089165e-05 -1.1369229568365187e-07 0.0
1.0811525566616318e-05 2.700800375177062e-07 0.0
8.982503177121049e-07 -9.52035962254147e-10 0.0
2.090692916260352e-06 -8.468171960360657e-09 0.0
9.234298867266691e-06 1.3806296254240007e-07 0.0
1.2380233824234274e-05 4.146047781925135e-08 0.0
1.135345329090986e-05 1.6668686463479284e-08 0.0
9.813091631506601e-06 -1.297063372529768e-07 0.0
3.4992237410065416e-06 3.506241752114404e-07 0.0
1.010101022668751e-05 3.095584441263851e-07 0.0
1.0050963400856234e-05 -3.42641302781417e-07 0.0
3.6422946462102667e-06 -3.3618488471868625e-07 0.0
8.487353854652436e-06 1.0878975389229918e-08 0.0
3.1404060287313294e-06 -5.25988199695886e-08 0.0
4.6870924435482135e-06 3.3871647656722826e-08 0.0
2.5001685136848713e-06 -3.327067905723788e-07 0.0
7.620039630130341e-07 -1.1341840917968871e-07 0.0
7.6341521846462e-07 1.1350411203501145e-07 0.0
1.2720137498081743e-05 -1.1302392862323578e-07 0.0
1.2764498271068342e-05 2.0315386370655754e-07 0.0
9.785287219419889e-06 1.0236871106175457e-07 0.0
3.783773729088656e-06 1.5576270100645417e-07 0.0
1.0502495664162858e-05 9.13867108773177e-09 0.0
8.091177012772424e-06 -2.2211868890956332e-08 0.0