# vtk DataFile Version 2.0
Really cool data
ASCII
DATASET POLYDATA
POINTS 79 float
0.0 0.0 0
0.125 0.0 0
0.125 0.025 0
0.175 0.025 0
0.175 0.0 0
0.3 0.0 0
0.3 0.1 0
0.175 0.1 0
0.175 0.07500000000000001 0
0.125 0.07500000000000001 0
0.125 0.1 0
0.0 0.1 0
0.03125000004370471 0.0 0
0.0625000001307804 0.0 0
0.09374999998068687 0.0 0
0.125 0.01250000001946666 0
0.1500000000542101 0.025 0
0.175 0.01249999996954493 0
0.2062499999498556 0.0 0
0.2375000000298155 0.0 0
0.2687499999363031 0.0 0
0.3 0.0333333333833971 0
0.3 0.06666666665533266 0
0.2687499999857699 0.1 0
0.2374999999335926 0.1 0
0.2062499998895469 0.09999999999999999 0
0.175 0.08749999992410584 0
0.1499999998970008 0.07500000000000001 0
0.125 0.08749999998373698 0
0.09374999993189857 0.09999999999999999 0
0.0624999998448236 0.1 0
0.03124999993393145 0.09999999999999999 0
0.0 0.0333333333833971 0
0.0 0.06666666665533266 0
0.1378547570355081 0.05872292154631246 0
0.1205274442651983 0.05862678463973545 0
0.07803612283544163 0.02746894678379668 0
0.2226162665830209 0.07211648701237751 0
0.04657850476242389 0.07368042341935963 0
0.1622706517654054 0.03938231233726987 0
0.252980499236 0.02602455144963511 0
0.109560885362774 0.06910636912149352 0
0.1035428582731431 0.05536550924987886 0
0.09446340455586462 0.07339030772034122 0
0.1297704041436086 0.04158982110107774 0
0.1132865766637887 0.01593857993116043 0
0.186753216184187 0.08404751813713929 0
0.1877801982831638 0.06703918828045416 0
0.1733905086174061 0.0598112640259766 0
0.1856181996521408 0.04946247546871016 0
0.1868846907912053 0.01597385514967477 0
0.1131718100429242 0.03296260135460721 0
0.04701194323136633 0.02605904576954292 0
0.1472836510273114 0.04403708240920157 0
0.156522442137825 0.05549035706134775 0
0.2530435320912519 0.07390570197147181 0
0.2225760006839336 0.02724783760424724 0
0.02677278634880424 0.04999031169197893 0
0.0585714362847925 0.05091877290869405 0
0.1878893412851503 0.03238808265173287 0
0.2732128773237721 0.04999740635679935 0
0.2405675714137089 0.04967440931258933 0
0.2028012289770727 0.05786760313150688 0
0.09855331488684695 0.02421843491374789 0
0.2022125407954209 0.02420632934680947 0
0.2019215881935539 0.07550588152163751 0
0.1106342982879173 0.08513466862109817 0
0.1763847799930755 0.03897617889497943 0
0.08376496491711016 0.05310692347303086 0
0.1153646765920849 0.04606322378801621 0
0.07093261472684372 0.07688653339035037 0
0.02248813842537181 0.07689914103870149 0
0.02248813853232256 0.02310085904459931 0
0.2775118614781718 0.07689914096938054 0
0.2775118615121814 0.02310085899762184 0
0.2019844792914555 0.04127381659182398 0
0.09873895792459182 0.03986427326051295 0
0.2189762525642749 0.04875447148100505 0
0.1708373164331706 0.04862451755765676 0
POLYGONS 122 488
3 27 9 34
3 34 9 35
3 2 44 51
3 9 28 66
3 10 29 66
3 28 10 66
3 38 57 58
3 57 52 58
3 13 36 52
3 18 19 56
3 19 40 56
3 60 55 61
3 40 60 61
3 13 14 36
3 16 39 53
3 43 29 70
3 34 35 44
3 18 56 64
3 41 9 66
3 14 45 63
3 52 36 58
3 34 53 54
3 56 40 61
3 68 43 70
3 34 44 53
3 53 39 54
3 58 68 70
3 50 18 64
3 30 31 38
3 12 13 52
3 36 14 63
3 51 44 69
3 24 25 37
3 23 24 55
3 24 37 55
3 19 20 40
3 27 34 54
3 25 46 65
3 47 8 48
3 29 43 66
3 48 54 78
3 29 30 70
3 33 32 57
3 35 9 41
3 21 22 60
3 55 37 61
3 11 33 71
3 32 0 72
3 22 6 73
3 31 11 71
3 5 21 74
3 0 12 72
3 6 23 73
3 20 5 74
3 44 35 69
3 54 39 78
3 37 25 65
3 68 36 76
3 38 58 70
3 58 36 68
3 47 48 49
3 30 38 70
3 43 41 66
3 49 48 78
3 36 63 76
3 56 61 77
3 64 56 75
3 57 38 71
3 52 57 72
3 38 31 71
3 75 56 77
3 12 52 72
3 67 49 78
3 55 60 73
3 60 40 74
3 23 55 73
3 40 20 74
3 33 57 71
3 57 32 72
3 42 43 68
3 59 49 67
3 35 41 42
3 15 2 45
3 45 2 51
3 35 42 69
3 26 8 46
3 60 22 73
3 59 50 64
3 21 60 74
3 61 37 77
3 46 8 47
3 47 49 62
3 42 41 43
3 3 59 67
3 3 17 50
3 45 51 63
3 3 50 59
3 49 59 75
3 51 69 76
3 37 62 77
3 42 68 76
3 69 42 76
3 46 47 65
3 59 64 75
3 62 37 65
3 62 49 75
3 47 62 65
3 63 51 76
3 39 67 78
3 62 75 77
3 14 1 45
3 1 15 45
3 2 16 44
3 16 3 39
3 39 3 67
3 17 4 50
3 4 18 50
3 25 7 46
3 7 26 46
3 8 27 48
3 44 16 53
3 48 27 54
CELL_DATA 122
SCALARS mises double 1
LOOKUP_TABLE default
8372597.296328995 5833590.369886863 4967719.143096725 1876126.369942406 894348.9814788924 1026900.9403253595 3938642.5619712425 3933766.448449895 3867871.8093384937 3114129.5636321716 3717849.226992808 3250595.8560914677 3262736.180302303 2961748.099625246 6971626.496632783 3879016.6640273044 5820568.5542271 3903044.0735635236 5269280.398231706 2592461.441743314 3951774.439022224 6700979.846551255 3759504.849703407 4125833.1511109103 6466856.1227070335 6722383.571901547 4507115.8994999165 2602759.7018398107 3456912.342823683 3438753.80484253 3875225.063970456 6034913.365560147 3138008.296623304 4188186.3740658304 3714355.282392757 4190146.786520956 6850710.754061905 2623862.4341947674 4854889.752557467 2732918.4568583053 6373097.857762432 2828494.249316147 3331237.1920698467 4694673.473365509 3828045.917810667 3757258.949639735 3364383.434858444 3370614.1684546247 4032366.5942468764 3752632.6432416146 4032195.5714052026 3746049.910530892 5466301.546443004 5466494.456457603 5478024.006557364 5925936.083365681 3888313.7499448326 4977845.446020033 3921568.4141101134 4502168.924778182 5823259.173579214 3785722.4842889407 4216062.552120552 5342808.839043035 4094906.950250289 4281200.268024222 4081732.3365921453 3625161.649274169 3644498.8656518366 3728797.1655824427 4811345.527019466 3741504.2076934446 5486088.009445267 3503884.8282154393 3503306.109585071 3484606.1356407553 3484978.6152199027 3446664.251921842 3452196.099672666 5217349.31927932 5926786.252314044 5751343.800386525 2095486.9955127586 5591151.077910977 5322163.904811415 2124023.3616088754 2620598.797159642 3846446.31371509 2620978.7821145398 4218929.110449585 5541808.6826271545 4946444.996811438 4976178.163111546 4669712.065175963 2109643.6323184967 3900890.5140824197 5413558.391767714 4952427.096244468 5064966.196612296 4800206.478005641 5035718.551216346 5664676.438855821 3869636.5580728133 5302684.3924525315 4057505.98330212 5742459.72940498 5269807.653785194 5276616.637010674 6119932.945457957 4618016.296275821 873987.8734922798 668157.9503847901 8117818.937840794 8612484.395257618 6016830.92069865 689016.6444840564 908251.9805448132 925503.3176909944 658758.3215984859 8072230.88909364 6543862.797139579 6567445.779626072
VECTORS principal_stress_1 float
-76739.69200797605 -833535.4352881893 0.0
-199264.65783878678 -939347.2862391974 0.0
-120805.02871403452 617664.1707923156 0.0
442055.7564831416 487898.4091627592 0.0
-176556.7670042359 -205440.16735319688 0.0
48339.72312731677 349381.12141898973 0.0
1364.1885802358236 114060.93025253157 0.0
1106.1969783622312 -117284.51977818047 0.0
4501.260439198076 -80294.79741879756 0.0
41152.67872840346 233311.35867598673 0.0
6842.113134381141 58983.91780303363 0.0
-2508.4392216248593 32072.10602944463 0.0
-2500.3891326216753 -31430.86597128279 0.0
41516.39578231521 -302356.92553939443 0.0
-15408.6892650343 -473204.7934070652 0.0
52762.15237926331 322928.8780681428 0.0
-35943.6580698546 1168766.2554945261 0.0
41925.63906107416 266937.28139610117 0.0
14569.44199203296 78301.53014536832 0.0
32527.080400114726 -317156.5270410177 0.0
16157.288703915143 -321982.67635339644 0.0
-31026.720623595596 -819452.3361854431 0.0
14229.444142758894 151341.59833442702 0.0
50497.07418495339 602677.3125847378 0.0
-8340.997447364216 1301571.3577722216 0.0
-53067.24381772523 -980651.4334663394 0.0
18878.90549929462 415332.99097269296 0.0
39418.11717822626 322948.6943484455 0.0
2379.4053996187754 62942.89599005509 0.0
4317.44384198804 -94119.1328940476 0.0
36988.352247137824 -272953.05916952156 0.0
-13251.839261365121 253494.27234959186 0.0
40777.94584376364 -234748.45303157676 0.0
9459.890459337672 -86351.99518313375 0.0
6621.414279266877 -57369.12108510803 0.0
9798.915868532808 89318.1328375521 0.0
-8496.528234463514 -405839.2924290867 0.0
38800.74928349525 -317418.3751306164 0.0
-76782.43201940102 425621.9213438851 0.0
55625.16584654796 488625.54520491464 0.0
-74593.04380506872 1198159.73168125 0.0
25889.475388035044 224448.25678556573 0.0
-385.23099013803085 -726934.6331063755 0.0
-85569.39154613076 -596007.8660923378 0.0
17.64162728497593 -1335892.1258211106 0.0
12794.992708581894 -139139.31379030127 0.0
-52996.18579841863 -716034.4048483287 0.0
-53039.775642077526 717399.9100102332 0.0
163907.74847936595 -787838.3638984154 0.0
-18865.006446577743 -211086.16962472716 0.0
163880.5732074244 787713.4773081341 0.0
-18916.021159023683 207543.74569483034 0.0
8205.84050296073 -185697.90195276335 0.0
8211.490029297962 185855.03499960015 0.0
-32066.396169868418 -639700.2757009631 0.0
-5193.434995069434 -1220613.3488359342 0.0
41096.80002072835 -267327.4079691379 0.0
22159.44123407542 -550381.5353716182 0.0
21804.87589180001 372292.32238878636 0.0
22306.649681809267 -607086.9318405222 0.0
-9898.560572220618 293622.2093954937 0.0
521.5644261046791 9357.363336070759 0.0
115001.12916089522 413011.0010659263 0.0
-70835.63586206212 1055000.0146514084 0.0
115536.86180753872 -661766.5796315683 0.0
30119.877692567494 456396.2553502727 0.0
111221.97282970416 629961.3275311452 0.0
-10913.19579279864 -232651.76386672744 0.0
-10286.617936739554 230134.81486100017 0.0
179.41427561461063 9670.07403602542 0.0
21386.89730405528 354917.30531698326 0.0
258.04458399942513 -13227.494106600256 0.0
-63876.204565950844 -777923.4755736091 0.0
-6591.177870897266 66697.4532974496 0.0
-6460.588429467312 -65116.91060374636 0.0
14120.118379332507 -94806.56156704805 0.0
14080.56401629002 94412.25041098859 0.0
-7627.357962258798 -223800.85264854797 0.0
-7127.8977437488375 216987.67606388018 0.0
48815.67577591573 560205.7985743884 0.0
-14018.655359439197 -294435.80573624105 0.0
11501.985571972136 111097.52617563657 0.0
321679.94521187345 -379030.1447562856 0.0
-28316.836482134935 145099.21753190484 0.0
-4786.045876137443 292994.75526767265 0.0
315705.920470196 -367255.89603756246 0.0
-685.3531627015062 65172.74753530733 0.0
121623.88818714808 367490.1182015598 0.0
-682.5822157121264 -64616.10727461642 0.0
27360.685539102786 -442988.20543445466 0.0
-19845.34482500279 94644.25227454926 0.0
836.490070440626 -9004.195135234442 0.0
24254.34323641119 363277.0487673854 0.0
-168544.3691922589 -819392.7762922673 0.0
328715.4874389958 388686.5412644298 0.0
121164.79497192035 -395067.94301906286 0.0
-27672.99824752932 -130843.22133874655 0.0
-618.0124767782346 -6722.292056608042 0.0
3861.600885505033 -40187.75727315205 0.0
18358.92993425734 -328984.43335755955 0.0
24262.664140804754 -561264.286725969 0.0
866.0962984735314 281889.3023553478 0.0
122116.19261763581 -391588.9638808232 0.0
27478.063701095 271775.36697319907 0.0
102673.35384163458 -605417.6697949411 0.0
624.1142321574165 346003.76987177157 0.0
29658.49912913292 -297438.29455914715 0.0
31323.588006962764 -313659.3072828552 0.0
-16680.303790221482 -1207681.892856332 0.0
1460.3070057369405 -600343.5063878702 0.0
-108018.34748770509 123740.22519645252 0.0
10824.411318270568 -347144.2406891893 0.0
-127323.33847744775 855520.2367060713 0.0
-70574.55886634762 -717409.874869176 0.0
-244140.71224412945 -1081118.1316279715 0.0
16311.523399925241 348445.4456088822 0.0
-113225.84746827975 -129742.35222190962 0.0
-107325.55990403613 125938.51279076593 0.0
22129.942752899035 -333053.84266403085 0.0
-150742.22062202316 894290.5655651708 0.0
-23318.884766153755 563760.9021641784 0.0
-27794.55515347072 700559.2663881738 0.0
VECTORS principal_stress_2 float
833535.4352881893 -76739.6920079761 0.0
939347.2862391972 -199264.65783878704 0.0
-617664.1707923156 -120805.02871403449 0.0
-487898.4091627593 442055.75648314157 0.0
205440.1673531969 -176556.76700423585 0.0
-349381.12141898973 48339.72312731671 0.0
-114060.93025253157 1364.1885802358306 0.0
117284.51977818047 1106.1969783622242 0.0
80294.79741879756 4501.26043919807 0.0
-233311.35867598673 41152.67872840347 0.0
-58983.91780303363 6842.113134381146 0.0
-32072.10602944463 -2508.4392216248575 0.0
31430.86597128279 -2500.389132621671 0.0
302356.92553939443 41516.39578231519 0.0
473204.7934070652 -15408.68926503433 0.0
-322928.8780681428 52762.15237926339 0.0
-1168766.2554945261 -35943.65806985453 0.0
-266937.28139610117 41925.63906107417 0.0
-78301.53014536832 14569.441992032966 0.0
317156.5270410177 32527.08040011471 0.0
321982.67635339644 16157.288703915123 0.0
819452.3361854431 -31026.720623595647 0.0
-151341.59833442702 14229.444142758904 0.0
-602677.3125847378 50497.07418495343 0.0
-1301571.3577722216 -8340.997447364136 0.0
980651.4334663394 -53067.24381772552 0.0
-415332.99097269296 18878.905499294644 0.0
-322948.6943484455 39418.117178226355 0.0
-62942.89599005509 2379.4053996187654 0.0
94119.1328940476 4317.4438419880335 0.0
272953.05916952156 36988.35224713781 0.0
-253494.27234959186 -13251.839261365105 0.0
234748.45303157676 40777.94584376363 0.0
86351.99518313375 9459.890459337666 0.0
57369.12108510803 6621.414279266874 0.0
-89318.13283755208 9798.915868532813 0.0
405839.2924290867 -8496.528234463449 0.0
317418.3751306164 38800.749283495235 0.0
-425621.9213438851 -76782.43201940099 0.0
-488625.54520491464 55625.16584654799 0.0
-1198159.73168125 -74593.04380506864 0.0
-224448.25678556573 25889.47538803501 0.0
726934.6331063755 -385.2309901382368 0.0
596007.8660923378 -85569.39154613094 0.0
1335892.1258211106 17.641627284894128 0.0
139139.31379030127 12794.992708581885 0.0
716034.4048483287 -52996.18579841868 0.0
-717399.9100102332 -53039.77564207749 0.0
787838.3638984154 163907.7484793659 0.0
211086.16962472716 -18865.006446577805 0.0
-787713.477308134 163880.5732074246 0.0
-207543.74569483034 -18916.021159023672 0.0
185697.90195276335 8205.840502960717 0.0
-185855.03499960015 8211.490029298015 0.0
639700.2757009631 -32066.396169868458 0.0
1220613.3488359344 -5193.434995069238 0.0
267327.4079691379 41096.80002072833 0.0
550381.5353716182 22159.441234075388 0.0
-372292.32238878636 21804.87589179995 0.0
607086.9318405222 22306.64968180923 0.0
-293622.2093954937 -9898.5605722206 0.0
-9357.363336070759 521.5644261046797 0.0
-413011.0010659263 115001.12916089533 0.0
-1055000.0146514084 -70835.63586206206 0.0
661766.5796315683 115536.86180753869 0.0
-456396.2553502727 30119.877692567527 0.0
-629961.3275311452 111221.9728297042 0.0
232651.76386672744 -10913.195792798655 0.0
-230134.81486100017 -10286.61793673954 0.0
-9670.07403602542 179.41427561461336 0.0
-354917.30531698326 21386.897304055223 0.0
13227.494106600256 258.04458399942433 0.0
777923.475573609 -63876.20456595108 0.0
-66697.4532974496 -6591.177870897262 0.0
65116.91060374636 -6460.588429467302 0.0
94806.56156704805 14120.118379332502 0.0
-94412.25041098859 14080.564016290025 0.0
223800.85264854797 -7627.357962258861 0.0
-216987.67606388018 -7127.897743748824 0.0
-560205.7985743884 48815.675775915646 0.0
294435.805736241 -14018.655359439279 0.0
-111097.52617563657 11501.985571972144 0.0
379030.14475628565 321679.94521187345 0.0
-145099.21753190484 -28316.836482134928 0.0
-292994.75526767265 -4786.045876137425 0.0
367255.89603756246 315705.92047019594 0.0
-65172.74753530733 -685.3531627015022 0.0
-367490.1182015598 121623.8881871481 0.0
64616.10727461642 -682.5822157121305 0.0
442988.20543445466 27360.685539102757 0.0
-94644.25227454926 -19845.344825002783 0.0
9004.195135234442 836.4900704406256 0.0
-363277.0487673854 24254.343236411216 0.0
819392.7762922673 -168544.36919225895 0.0
-388686.5412644298 328715.48743899574 0.0
395067.94301906286 121164.79497192032 0.0
130843.22133874655 -27672.9982475293 0.0
6722.292056608042 -618.0124767782336 0.0
40187.75727315205 3861.600885505031 0.0
328984.43335755955 18358.929934257318 0.0
561264.286725969 24262.664140804718 0.0
-281889.3023553478 866.0962984735487 0.0
391588.9638808232 122116.19261763578 0.0
-271775.36697319907 27478.06370109508 0.0
605417.6697949411 102673.35384163455 0.0
-346003.76987177157 624.1142321575146 0.0
297438.29455914715 29658.499129132902 0.0
313659.3072828552 31323.588006962746 0.0
1207681.892856332 -16680.303790221555 0.0
600343.5063878702 1460.3070057369039 0.0
-123740.22519645252 -108018.34748770508 0.0
347144.2406891893 10824.411318270546 0.0
-855520.2367060713 -127323.33847744769 0.0
717409.874869176 -70574.55886634768 0.0
1081118.1316279713 -244140.71224412977 0.0
-348445.4456088822 16311.523399925185 0.0
129742.35222190962 -113225.84746827975 0.0
-125938.51279076593 -107325.5599040361 0.0
333053.84266403085 22129.942752899016 0.0
-894290.5655651708 -150742.22062202313 0.0
-563760.9021641784 -23318.884766153722 0.0
-700559.2663881738 -27794.555153470676 0.0
POINT_DATA 79
VECTORS displacements float
0.0 0.0 0.0
-1.6381672387262823e-05 3.67273640761667e-08 0.0
-2.3617735086364054e-05 -3.641892861470593e-07 0.0
-4.4295193539403696e-05 2.061125109946038e-08 0.0
-5.172371785114678e-05 4.137420110021413e-07 0.0
-7.199515799002565e-05 -4.026922503038479e-06 0.0
-7.158368974193828e-05 3.3915153731689545e-06 0.0
-5.1232143258008693e-05 9.805265775124327e-08 0.0
-4.410595694146868e-05 5.486958450411789e-07 0.0
-2.3723872726422935e-05 2.5625603286670656e-07 0.0
-1.6286446808808772e-05 -1.489590108309684e-07 0.0
0.0 0.0 0.0
-5.7271045247843945e-06 -1.6115570415929058e-06 0.0
-1.0853107552327923e-05 -2.3460562866126597e-06 0.0
-1.5180410748652022e-05 -2.846263904383104e-06 0.0
-1.839197953214439e-05 2.959209059205118e-07 0.0
-3.3688501715757285e-05 -9.216811787614856e-07 0.0
-4.962147454760045e-05 6.759864449082959e-07 0.0
-5.297206597128309e-05 -2.620943958346107e-06 0.0
-5.7586689215279426e-05 -2.0538523658114985e-06 0.0
-6.386439525315846e-05 -1.7725623500936873e-06 0.0
-6.615321735648053e-05 -1.8659776477394686e-06 0.0
-6.601562080083855e-05 1.2303533576515433e-06 0.0
-6.345313879855585e-05 1.3936173914629158e-06 0.0
-5.717708958075082e-05 1.922969999828331e-06 0.0
-5.252842602642291e-05 2.761464634179065e-06 0.0
-4.927959600700395e-05 -1.5197985707438294e-07 0.0
-3.4069081515268936e-05 1.148860209924021e-06 0.0
-1.8420421372144862e-05 -4.4611568372718306e-07 0.0
-1.5063396301420955e-05 2.907859236641546e-06 0.0
-1.09049018786921e-05 2.318787303544036e-06 0.0
-5.737913576991624e-06 1.6096424177500346e-06 0.0
0.0 0.0 0.0
0.0 0.0 0.0
-2.983693480110373e-05 4.757687511456303e-08 0.0
-2.4768689666994745e-05 2.591146507969288e-07 0.0
-1.3929657806275535e-05 -1.522032903668502e-06 0.0
-5.386426089213241e-05 1.31445518530899e-06 0.0
-8.075843147763906e-06 1.01667658030688e-06 0.0
-3.808751461305055e-05 2.2960837714560437e-07 0.0
-5.952718457942579e-05 -8.225784477970916e-07 0.0
-2.086604293389658e-05 1.015033130440659e-06 0.0
-2.0357782441576196e-05 3.105450349826811e-07 0.0
-1.7054386385085676e-05 1.6707563003981733e-06 0.0
-2.736907434728854e-05 7.279300442096961e-08 0.0
-1.8667364791603584e-05 -1.4840930351242364e-06 0.0
-4.901957636614111e-05 1.5462005387854337e-06 0.0
-4.604852613625594e-05 9.506785630097237e-07 0.0
-4.155899223099228e-05 1.5625724418383218e-07 0.0
-4.445535635282202e-05 1.2310818318330015e-07 0.0
-4.933200048624062e-05 -1.1988422604062745e-06 0.0
-2.1915445132977058e-05 -8.44332372198952e-07 0.0
-8.181271819507453e-06 -1.0226322542932215e-06 0.0
-3.3036808333731724e-05 -1.5169949305732346e-07 0.0
-3.6054296391258044e-05 3.815832165038607e-07 0.0
-5.933661291044583e-05 5.684614784183552e-07 0.0
-5.405762783308158e-05 -1.3504001875884613e-06 0.0
-4.491251588560525e-06 4.760179811270789e-09 0.0
-1.0453464581301763e-05 4.234085980180402e-08 0.0
-4.617149433633342e-05 -6.903148127119631e-07 0.0
-6.190116912117136e-05 -2.073023890961454e-07 0.0
-5.676726645454928e-05 -8.334343231731284e-08 0.0
-4.906545815753298e-05 6.48531686264936e-07 0.0
-1.7496118705032698e-05 -1.7531208760571967e-06 0.0
-5.050505113343751e-05 -1.5477922206318753e-06 0.0
-5.025481700428116e-05 1.7132065139071358e-06 0.0
-1.8211473231051336e-05 1.6809244235934364e-06 0.0
-4.243676927326215e-05 -5.4394876946119125e-08 0.0
-1.5702030143656644e-05 2.6299409984794535e-07 0.0
-2.343546221774107e-05 -1.6935823828360854e-07 0.0
-1.250084256842435e-05 1.6635339528618952e-06 0.0
-3.81001981506517e-06 5.670920458984437e-07 0.0
-3.817076092323098e-06 -5.675205601750569e-07 0.0
-6.360068749040872e-05 5.651196431162949e-07 0.0
-6.382249135534167e-05 -1.0157693185326725e-06 0.0
-4.8926436097099424e-05 -5.11843555308721e-07 0.0
-1.8918868645443275e-05 -7.788135050322668e-07 0.0
-5.251247832081427e-05 -4.569335543859306e-08 0.0
-4.045588506386211e-05 1.1105934445480788e-07 0.0