# vtk DataFile Version 2.0
Really cool data
ASCII
DATASET POLYDATA
POINTS 55 float
0.0 0.0 0
0.125 0.0 0
0.125 0.003419999999999999 0
0.175 0.003419999999999999 0
0.175 0.0 0
0.3 0.0 0
0.3 0.1 0
0.175 0.1 0
0.175 0.09658 0
0.125 0.09658 0
0.125 0.1 0
0.0 0.1 0
0.06250000013078053 0.0 0
0.125 0.001710000003543551 0
0.1500000000542101 0.003419999999999999 0
0.175 0.001709999995468391 0
0.2375000000379471 0.0 0
0.3 0.05000000007786663 0
0.2374999999024218 0.09999999999999999 0
0.175 0.09828999998373696 0
0.1499999998970008 0.09658000000000003 0
0.125 0.09828999996476344 0
0.06249999984482352 0.1 0
0.0 0.05000000007786663 0
0.1374999999485004 0.08034202374594174 0
0.162500000027105 0.01965797628574772 0
0.1375000000271051 0.01965797630922139 0
0.1500000000395377 0.03289905971316064 0
0.1624999999485004 0.08034202370134177 0
0.1498791293347053 0.06372907134296052 0
0.1500000000369895 0.01890875307703244 0
0.1340861245547505 0.03540152101005029 0
0.1149466165985917 0.08070613149795718 0
0.1669703780691902 0.03685679184702026 0
0.1108366931853124 0.0246271073311817 0
0.1148022328304412 0.04385519270525079 0
0.1896500860670136 0.02550388364182978 0
0.1852911554417824 0.04698180833021388 0
0.1309926864284788 0.06444115017588489 0
0.1434389524563309 0.04856747761421278 0
0.1688625381493445 0.05673907749476841 0
0.1896365883764279 0.07212956539645649 0
0.2158264747008185 0.05048400506507537 0
0.1071507069724467 0.06405710446053689 0
0.08384894762673922 0.04832863974323122 0
0.04530405279663095 0.05743243396241796 0
0.2553810183793183 0.05828877302195218 0
0.1260941406484896 0.05126448919318713 0
0.1499999999453431 0.07857220458832448 0
0.1558301996098218 0.04775829560242452 0
0.2727579676490691 0.02605724148588299 0
0.02706875645156925 0.02632722037546033 0
0.171655546444876 0.07214904665360354 0
0.1746980336924511 0.08030015893785045 0
0.1620224007723182 0.06837187692671876 0
POLYGONS 84 336
3 20 9 24
3 34 35 44
3 43 22 44
3 2 26 34
3 29 39 49
3 18 41 42
3 25 3 36
3 29 38 39
3 40 29 49
3 11 23 45
3 24 9 32
3 17 6 46
3 22 11 45
3 42 16 46
3 6 18 46
3 29 40 54
3 29 24 38
3 26 27 31
3 12 44 45
3 27 26 30
3 27 25 33
3 44 22 45
3 0 12 51
3 16 5 50
3 25 27 30
3 52 41 53
3 46 16 50
3 18 42 46
3 31 27 39
3 26 14 30
3 39 38 47
3 24 29 48
3 28 20 48
3 12 45 51
3 33 40 49
3 14 25 30
3 33 37 40
3 38 43 47
3 24 32 38
3 28 48 54
3 20 24 48
3 40 37 41
3 33 25 36
3 26 31 34
3 43 35 47
3 39 27 49
3 5 17 50
3 23 0 51
3 40 41 52
3 48 29 54
3 31 39 47
3 27 33 49
3 33 36 37
3 38 32 43
3 34 31 35
3 45 23 51
3 17 46 50
3 28 52 53
3 35 31 47
3 52 28 54
3 41 37 42
3 35 43 44
3 40 52 54
3 12 1 13
3 12 13 2
3 12 2 34
3 2 14 26
3 14 3 25
3 16 3 15
3 3 16 36
3 16 15 4
3 19 18 7
3 8 18 19
3 18 8 41
3 8 20 28
3 8 28 53
3 41 8 53
3 9 21 22
3 9 22 32
3 21 10 22
3 12 34 44
3 36 16 42
3 32 22 43
3 37 36 42
CELL_DATA 84
SCALARS mises double 1
LOOKUP_TABLE default
7716162.352427371 6950038.467207167 6793646.537455135 7035848.51562153 6789639.925322911 6636509.6015290525 7101258.114744849 6856231.180575991 6772466.16964765 6024324.756607753 6969258.472773081 5870410.124442103 6560573.205852741 6277518.783716533 7864873.679524115 6834728.805987033 6849050.795593239 6882198.279570481 6839232.142908017 7145062.36867014 6885205.4468028 6938549.048602939 6427483.682949447 8634637.778139431 7150908.873802036 6854364.643944127 6455627.943732641 6143560.002613918 6841125.389401274 7162102.503055777 6836661.323826128 7093165.609910076 7152914.750441385 6689998.483170976 6787713.488209485 7166214.596468398 6658699.303777861 6895236.564387688 6954486.897126554 7084602.925451782 7125199.902527367 6818475.017319907 6904397.034944802 6863034.258105057 6976130.9643458715 6791507.247259728 7413191.013140137 5942616.344491824 6823561.563983612 6928706.053519649 6845267.572005408 6820322.1447397 6861218.702620304 6931586.723494534 6970568.1215963205 6130306.636309735 4623578.214925335 7117799.660902172 6868389.237616845 6902961.116087926 6532323.263432998 6925877.052625031 6905835.892985724 6319650.443081125 6288532.779124496 6337700.493162523 7704197.781069142 7701575.338052734 6584552.605964436 6587762.593727181 6617135.24017628 6612330.514031408 6579771.703066184 6594051.462779489 7708472.48391039 7159415.308993944 7041015.761171197 6283340.1851833295 6323059.94962906 6314432.320869031 6699816.469657393 6599216.410671285 6541266.161984436 6609912.653187647
VECTORS principal_stress_1 float
7755037.914442368 -136637.4978250995 0.0
6899984.495719322 56217.7001050746 0.0
6724637.76815738 51869.24436311831 0.0
7050976.444027215 281157.3098854069 0.0
6908130.772924588 -7041.707569675312 0.0
6742680.732862215 238597.93743283764 0.0
7092219.458157608 -300388.3962144892 0.0
6962138.273681263 20036.924549215713 0.0
6892842.234013544 -1438.571149293355 0.0
6573891.592035874 -133523.35557034847 0.0
6996104.490800682 -316637.21924615407 0.0
5710629.804960805 1261897.6232311837 0.0
6737763.862874667 -359841.455284416 0.0
6471063.872820118 -134731.09551857447 0.0
7867298.229165832 390550.6744949524 0.0
6952781.239638179 67006.65648288629 0.0
6955366.677027477 -60608.29021419676 0.0
6980621.274159437 74386.99379142419 0.0
6797653.266794866 -72971.62077313443 0.0
7218173.036750419 18924.011643541362 0.0
6981178.653126572 -91290.65457246323 0.0
6896906.190597899 97725.60819334492 0.0
6715922.234408685 347208.9995062732 0.0
8278052.43124787 -729984.2502683769 0.0
7224689.0945682265 -31343.70507774037 0.0
6884977.199532922 188985.91386675395 0.0
6717871.844041415 -307352.1431273964 0.0
6154390.033816846 423770.20262886264 0.0
6950103.839758873 -18514.710001877615 0.0
7207886.2878737 23881.76157196816 0.0
6907527.944170888 -27222.10280754977 0.0
7192742.898865216 -18925.034787850658 0.0
7203052.93859266 23763.495636231473 0.0
6770924.943302976 262044.51658786222 0.0
6908550.756775103 -10513.948161751288 0.0
7212443.7002515765 -23254.456539223236 0.0
6766432.014653857 -8924.661000585018 0.0
6938414.041301467 37996.6501393304 0.0
7021349.124425826 24321.696223165265 0.0
7203446.753450284 102413.11250691244 0.0
7172319.253765616 -21170.732431573844 0.0
6892403.212884455 67126.40434790569 0.0
6991850.846567084 -60890.72958637617 0.0
6937831.172952307 -7499.1174198522185 0.0
6938746.58222204 12166.37001649926 0.0
6908430.759000133 -756.710674020198 0.0
6988661.877398768 -1186378.0680468953 0.0
6486098.5781344995 216456.9682720846 0.0
6903484.602933031 59006.957641644956 0.0
7010567.046398703 -1212.2500718202025 0.0
6927503.618939377 15966.551182881778 0.0
6938400.490481616 -1808.9104576430275 0.0
6926182.964237494 -115982.64057526401 0.0
6920624.167370188 -62683.50091908375 0.0
6939475.0451864125 -5858.80645266545 0.0
6424187.135970774 -31374.79863216491 0.0
4717999.2625447605 -781867.5347563755 0.0
7199703.809942581 92698.84454258638 0.0
6932356.9531205855 -14115.05109319629 0.0
7005761.679638948 28301.193701797958 0.0
6568313.282282257 124093.91573855674 0.0
6866365.641461372 -29129.48404079398 0.0
6998241.407664482 35101.723700739974 0.0
6324381.098912324 173035.06758691362 0.0
6326246.787391792 518950.4255665872 0.0
6349994.509203473 174416.4231423867 0.0
7732725.273063895 118194.58867514366 0.0
7734053.095268492 -120366.12089363816 0.0
6624042.178192947 -543378.9746413516 0.0
6655599.106431205 -328869.4515068354 0.0
6622088.666121109 -181180.34531482236 0.0
6617280.261275016 181048.78995306673 0.0
6619232.3547343165 542984.4218155252 0.0
6645462.298221351 314199.43927795114 0.0
7743967.099638841 124112.44948552243 0.0
7177717.588804032 265295.59849363915 0.0
7046802.084112997 296138.90489812085 0.0
6321023.300659433 -518521.9368487888 0.0
6341764.761337194 -223879.9657023872 0.0
6319159.152877781 -172892.1975561297 0.0
6643613.598260686 -48223.93857909807 0.0
6737370.239100638 -260964.58963130592 0.0
6511712.202914441 -24722.761833154855 0.0
6644120.368450137 -154447.9664972957 0.0
VECTORS principal_stress_2 float
136637.49782510017 7755037.914442368 0.0
-56217.70010507437 6899984.495719322 0.0
-51869.24436311776 6724637.76815738 0.0
-281157.309885406 7050976.444027215 0.0
7041.707569674993 6908130.772924588 0.0
-238597.93743283756 6742680.732862215 0.0
300388.39621448994 7092219.458157608 0.0
-20036.924549215208 6962138.273681263 0.0
1438.5711492938829 6892842.234013544 0.0
133523.35557034868 6573891.592035874 0.0
316637.2192461551 6996104.490800682 0.0
-1261897.6232311835 5710629.804960806 0.0
359841.4552844169 6737763.862874667 0.0
134731.09551857444 6471063.872820118 0.0
-390550.6744949522 7867298.229165832 0.0
-67006.65648288629 6952781.239638179 0.0
60608.290214197106 6955366.677027477 0.0
-74386.99379142302 6980621.274159437 0.0
72971.62077313416 6797653.266794866 0.0
-18924.011643541566 7218173.036750419 0.0
91290.65457246326 6981178.653126572 0.0
-97725.60819334444 6896906.190597899 0.0
-347208.99950627255 6715922.234408685 0.0
729984.2502683768 8278052.43124787 0.0
31343.705077741128 7224689.0945682265 0.0
-188985.9138667538 6884977.199532922 0.0
307352.1431273974 6717871.844041415 0.0
-423770.20262886194 6154390.033816846 0.0
18514.710001877942 6950103.839758873 0.0
-23881.761571967032 7207886.2878737 0.0
27222.1028075504 6907527.944170888 0.0
18925.034787850956 7192742.898865216 0.0
-23763.495636231713 7203052.93859266 0.0
-262044.51658786146 6770924.943302976 0.0
10513.948161752456 6908550.756775103 0.0
23254.45653922406 7212443.7002515765 0.0
8924.661000584894 6766432.014653857 0.0
-37996.65013933037 6938414.041301467 0.0
-24321.69622316408 7021349.124425826 0.0
-102413.11250691266 7203446.753450284 0.0
21170.73243157406 7172319.253765616 0.0
-67126.40434790519 6892403.212884455 0.0
60890.72958637704 6991850.846567084 0.0
7499.117419851977 6937831.172952307 0.0
-12166.370016499404 6938746.58222204 0.0
756.7106740202066 6908430.759000133 0.0
1186378.068046896 6988661.8773987675 0.0
-216456.96827208484 6486098.5781344995 0.0
-59006.9576416452 6903484.602933031 0.0
1212.2500718199935 7010567.046398703 0.0
-15966.551182881505 6927503.618939377 0.0
1808.9104576436837 6938400.490481616 0.0
115982.64057526411 6926182.964237494 0.0
62683.50091908407 6920624.167370188 0.0
5858.806452665794 6939475.0451864125 0.0
31374.798632165803 6424187.135970774 0.0
781867.5347563754 4717999.2625447605 0.0
-92698.84454258654 7199703.809942581 0.0
14115.051093196485 6932356.9531205855 0.0
-28301.1937017978 7005761.679638948 0.0
-124093.91573855696 6568313.282282257 0.0
29129.484040794607 6866365.641461372 0.0
-35101.72370073991 6998241.407664482 0.0
-173035.06758691376 6324381.098912324 0.0
-518950.4255665863 6326246.787391792 0.0
-174416.4231423865 6349994.509203473 0.0
-118194.5886751425 7732725.273063895 0.0
120366.12089363868 7734053.095268492 0.0
543378.9746413517 6624042.178192947 0.0
328869.4515068362 6655599.106431205 0.0
181180.3453148234 6622088.666121109 0.0
-181048.78995306604 6617280.261275016 0.0
-542984.4218155252 6619232.3547343165 0.0
-314199.43927795126 6645462.298221351 0.0
-124112.44948552136 7743967.099638841 0.0
-265295.5984936388 7177717.588804032 0.0
-296138.90489812 7046802.084112997 0.0
518521.93684878957 6321023.300659433 0.0
223879.96570238707 6341764.761337194 0.0
172892.19755613053 6319159.152877781 0.0
48223.93857909914 6643613.598260686 0.0
260964.58963130636 6737370.239100638 0.0
24722.761833155182 6511712.202914441 0.0
154447.96649729653 6644120.368450137 0.0
POINT_DATA 55
VECTORS displacements float
0.0 0.0 0.0
3.8787951116272946e-05 3.014319813280282e-06 0.0
3.894563119641623e-05 2.809810771409739e-06 0.0
5.750470609401473e-05 2.6053679778707446e-06 0.0
5.7600933122361664e-05 2.819503873105381e-06 0.0
0.00010269340147328052 5.230594460844637e-06 0.0
0.00010133964266514942 -4.662728646937123e-06 0.0
5.784720591896594e-05 -3.435549272453538e-06 0.0
5.7724916479755725e-05 -3.221568864747119e-06 0.0
3.913386334771569e-05 -3.173223375081432e-06 0.0
3.898657053187218e-05 -3.377563556949948e-06 0.0
0.0 0.0 0.0
1.9794354961266306e-05 3.403186929059158e-06 0.0
3.883271889920574e-05 2.9107603556641937e-06 0.0
4.822534249599069e-05 2.5595906367757157e-06 0.0
5.758849574875973e-05 2.7110695620435965e-06 0.0
7.74886148101578e-05 1.967985975594785e-06 0.0
9.213424913621185e-05 -4.978626027426433e-07 0.0
7.772044679855651e-05 -3.062213319860086e-06 0.0
5.782171143428115e-05 -3.327193695980233e-06 0.0
4.8435145994683336e-05 -3.0464314659209004e-06 0.0
3.902617281711469e-05 -3.274089604909392e-06 0.0
2.0008657016033205e-05 -3.578663144726534e-06 0.0
0.0 0.0 0.0
4.4120396664619944e-05 -1.958476125414214e-06 0.0
5.2611596007615516e-05 1.4246482218647184e-06 0.0
4.396789478313531e-05 1.5208809112304893e-06 0.0
4.8329558042032205e-05 6.837913932517167e-07 0.0
5.273579477011058e-05 -1.9793139445801295e-06 0.0
4.836764327298388e-05 -1.0052202378691701e-06 0.0
4.82855192974436e-05 1.5549176660791176e-06 0.0
4.305579459136561e-05 6.367091089272156e-07 0.0
3.6533099855726644e-05 -2.260978390220051e-06 0.0
5.396011890104589e-05 4.229383877135001e-07 0.0
3.518330836418166e-05 1.623603323174213e-06 0.0
3.669071525694072e-05 2.432375390826952e-07 0.0
6.164146267213574e-05 1.1269563755989745e-06 0.0
5.9895605526281584e-05 -1.7273918115503738e-07 0.0
4.208611034491166e-05 -1.069522696124954e-06 0.0
4.621079252671896e-05 -1.5656502273006114e-07 0.0
5.4600103176744105e-05 -6.640270826085093e-07 0.0
6.165004191240151e-05 -1.6808075988763031e-06 0.0
6.956953996367597e-05 -4.1739409567567054e-07 0.0
3.415351373691302e-05 -1.1796668844188706e-06 0.0
2.6437092598189578e-05 2.4278391195016114e-08 0.0
1.3744017114307995e-05 -5.585442498853068e-07 0.0
8.152418956025612e-05 -3.393175801158235e-07 0.0
4.0473285113551804e-05 -2.731101101111784e-07 0.0
4.841749798506548e-05 -1.8868962816027733e-06 0.0
5.029541501235746e-05 -1.4898091488745464e-07 0.0
8.794711850765126e-05 8.146927486568144e-07 0.0
8.100545197446842e-06 5.412728250830169e-07 0.0
5.571066388429018e-05 -1.582184241510409e-06 0.0
5.6937348621180535e-05 -2.1163701699171227e-06 0.0
5.244393427345045e-05 -1.2902464067737194e-06 0.0