# vtk DataFile Version 2.0
Really cool data
ASCII
DATASET POLYDATA
POINTS 57 float
0.0 0.0 0
0.125 0.0 0
0.125 0.02002 0
0.175 0.02002 0
0.175 0.0 0
0.3 0.0 0
0.3 0.1 0
0.175 0.1 0
0.175 0.07998000000000001 0
0.125 0.07998000000000001 0
0.125 0.1 0
0.0 0.1 0
0.06250000013078053 0.0 0
0.125 0.01001000001849648 0
0.1500000000542101 0.02001999999999999 0
0.175 0.01000999997114672 0
0.2375000000379471 0.0 0
0.3 0.05000000007786663 0
0.2374999999024218 0.09999999999999999 0
0.175 0.08998999991326383 0
0.1499999998970008 0.07998000000000001 0
0.125 0.08998999997831596 0
0.06249999984482352 0.1 0
0.0 0.05000000007786663 0
0.1368553513346539 0.06370530513882704 0
0.1198929497979462 0.06177689440879885 0
0.1609964820875981 0.03623608238784057 0
0.1295303196484196 0.04828367992583727 0
0.1632516863720769 0.06573363605234751 0
0.1439908979093616 0.04874933568064535 0
0.1375000000271051 0.03279756191247921 0
0.1236423258790883 0.0348437897907105 0
0.1098825434206594 0.02149869596673595 0
0.1117111615263696 0.04497708231540607 0
0.0876948611508641 0.0365225740972723 0
0.1022418293750221 0.07049871531489225 0
0.0611356626801737 0.05074317171934495 0
0.03082756260622728 0.03017787469622701 0
0.03071430236412698 0.06870300665304359 0
0.1497212545605597 0.03654158476161491 0
0.1589367857711413 0.04987401989810596 0
0.174091170950723 0.04401968660305065 0
0.2647347065610853 0.06716838324127589 0
0.230573722009244 0.05249805500799707 0
0.2088940231643821 0.08173568178995008 0
0.2009721132910934 0.05472532600589045 0
0.1958180515506139 0.02623378060001474 0
0.1839756265078115 0.08445760622758779 0
0.2665616857216553 0.03393328766542791 0
0.1876483179290642 0.07088486892673626 0
0.1868463191893858 0.04286726478641863 0
0.1804031241298223 0.03261354642409913 0
0.1757978821918252 0.06574885925905917 0
0.1828772873695864 0.05637672050282588 0
0.1701064592484582 0.05550456287409717 0
0.1506069442568469 0.06160845935398516 0
0.1692412500540383 0.03001953276534019 0
POLYGONS 88 352
3 8 28 52
3 20 9 24
3 12 32 34
3 24 9 25
3 2 14 30
3 26 14 56
3 46 45 50
3 2 30 31
3 22 11 38
3 41 26 56
3 0 12 37
3 29 27 30
3 16 43 46
3 24 27 29
3 40 26 41
3 24 25 27
3 16 5 48
3 51 41 56
3 33 25 35
3 37 36 38
3 32 31 33
3 6 18 42
3 12 34 36
3 41 50 53
3 30 27 31
3 39 26 40
3 46 50 51
3 5 17 48
3 43 18 44
3 14 26 39
3 35 22 36
3 27 25 33
3 23 37 38
3 42 43 48
3 43 16 48
3 50 41 51
3 29 39 40
3 43 45 46
3 29 30 39
3 44 47 49
3 23 0 37
3 28 20 55
3 11 23 38
3 42 18 43
3 12 36 37
3 40 41 54
3 20 24 55
3 31 27 33
3 36 22 38
3 43 44 45
3 7 19 47
3 45 44 49
3 2 31 32
3 24 29 55
3 41 53 54
3 17 6 42
3 34 35 36
3 3 51 56
3 29 40 55
3 40 28 55
3 32 33 34
3 47 8 49
3 34 33 35
3 49 8 52
3 30 14 39
3 53 52 54
3 50 45 53
3 19 8 47
3 17 42 48
3 45 49 53
3 28 40 54
3 49 52 53
3 52 28 54
3 14 3 56
3 18 7 44
3 44 7 47
3 12 1 32
3 1 13 32
3 13 2 32
3 3 15 46
3 3 46 51
3 15 4 46
3 4 16 46
3 8 20 28
3 9 21 35
3 25 9 35
3 21 10 35
3 10 22 35
CELL_DATA 88
SCALARS mises double 1
LOOKUP_TABLE default
9585389.054468682 12860120.438590841 6204351.889374909 9455696.424936477 13186973.579504482 11408499.164485084 9060430.704751695 10121878.858411266 6483981.352712303 9919978.92887597 6487871.953862325 9084398.325771602 6754842.014014407 9136284.031478766 8991258.610506369 8986527.230024125 8415124.310803901 8905213.133255973 9066011.337456388 6754398.261715823 9556666.261766983 8379539.019134724 7392377.238114304 9181576.211907461 9610104.880814392 10447198.191627499 8716826.8033426 6601279.402409274 6256848.174541391 10697215.448978473 7250503.19123462 9150569.236416787 6137104.858701471 6457082.647402179 6276387.407592069 9056460.617672198 9578091.905794283 7393859.718706516 10425963.06063112 5667647.887264204 5953485.495482762 10567378.616366694 5956272.261482126 6329329.773773184 7074861.846892491 9338681.776473306 10416901.322679916 8553379.46295573 7066999.790769321 7571672.597293954 1772029.9685579622 7732441.674299806 7496383.618852208 10178556.183391305 8874609.376696957 6708340.593005907 7491806.104288578 9861734.134302676 9587547.253974605 10086847.660121331 7550764.735008856 9018907.388225945 8941921.928915521 7894940.098615838 10840808.924552765 8770287.895962095 8150289.550748785 6657623.886136851 4211966.128144337 8510671.1015852 8874814.13534367 9277852.964769226 9603609.131154634 13299022.80904012 4656962.609020529 5515101.770390781 4473028.105748367 2697487.479562433 8152930.017396246 8421119.460137172 7243030.490163241 3779324.649442588 4808793.971216718 13161015.46358974 8896332.535841282 7135826.629182094 4271004.196111537 4706056.861619801
VECTORS principal_stress_1 float
10378933.037772598 2029186.6023602085 0.0
13334716.216139957 -1192543.497858671 0.0
5988012.583868691 225378.66878186187 0.0
10111210.351740086 -1786456.359515809 0.0
13606278.183642358 1186235.8028907073 0.0
11859059.99474915 -522731.93671653327 0.0
9027564.730691364 -533676.6299473492 0.0
10916737.007017087 2024896.4110734232 0.0
6695538.388891533 -503937.86490626447 0.0
10686720.601793967 -1085810.0303983206 0.0
6698483.087043177 494605.8419156257 0.0
9794724.175272146 565916.4543689886 0.0
6734698.316759852 -419683.31760175247 0.0
9858023.315392992 -368669.5379501957 0.0
9641029.134619687 -287331.98098439124 0.0
9525231.919722915 104295.19375331671 0.0
8146906.369792317 -667758.2499568553 0.0
9382772.101955635 -340324.6067527399 0.0
8984029.694971524 -3559.6805976390424 0.0
6989122.34909525 -7884.329532341873 0.0
9702602.787724884 777394.8710950733 0.0
8123688.643433806 645752.8315315838 0.0
7172181.29070878 41693.94037305418 0.0
9463927.360933403 16821.662057729372 0.0
10179965.844141087 252246.60581885697 0.0
11204729.44941586 -405671.529547713 0.0
8775195.064944668 -419843.28231804 0.0
6249759.398969498 -1291401.2990676872 0.0
6200317.760734418 456663.8814238894 0.0
10992841.75287108 -173553.56986737586 0.0
7013036.558706329 -102581.51232226587 0.0
9315556.660420045 -421112.84814462456 0.0
6309666.193641948 2160.279097126803 0.0
6706268.342500283 34283.25403673565 0.0
6211323.9982953975 -382751.75659187714 0.0
9309727.274288246 -745523.2723590557 0.0
10152409.40367294 82885.9833122897 0.0
7220774.52011003 -561355.7279538481 0.0
11177612.821111592 523781.63203803316 0.0
6158656.511819638 2047915.1914722198 0.0
6500031.34966367 302569.75293436093 0.0
10882063.509878185 320112.4754899178 0.0
6502563.299747843 -284003.10922580515 0.0
6285049.0395061355 420306.1531740635 0.0
6827232.848051448 225462.98458395197 0.0
9928336.721058741 79165.77468601654 0.0
10691932.239721905 -375030.39924406586 0.0
8958263.645398023 663933.8749155562 0.0
6814434.097686572 -212399.15391256858 0.0
7487488.2272767285 657242.2219155439 0.0
460178.35058429634 -39310.176654541734 0.0
7658721.137602051 657198.5312476495 0.0
7946897.110094061 1336587.9431535276 0.0
10906382.129189404 -344279.80110284634 0.0
9351910.22340118 -225363.78050744772 0.0
6353299.735832136 1303102.0156444418 0.0
7016540.473653045 -89774.85084612257 0.0
10527209.050391665 -2169707.110811892 0.0
10147031.298470976 70676.45755363956 0.0
10862454.364045147 554992.9504740308 0.0
7494392.901348406 1024164.2607055419 0.0
9514714.290453333 2004097.2434728644 0.0
8669987.031674542 -367893.2231697857 0.0
8494100.414415311 1663071.4801326704 0.0
11163679.797744146 329386.66479191254 0.0
9210893.5342905 679937.752809036 0.0
8266728.25656706 -309919.7230221687 0.0
7798446.052825382 3673775.9014197765 0.0
4229760.280489052 -23306.234309668675 0.0
8531512.001143299 932178.1758030084 0.0
9611026.37306314 368855.61450844415 0.0
9498718.78985838 463822.4158852063 0.0
10218534.251011943 237747.34215115785 0.0
13796116.91211519 -1944953.26429797 0.0
5061945.692025577 1225495.6317561956 0.0
5983027.099923133 1750827.811203437 0.0
4911346.762903031 1446450.5608687086 0.0
2628340.9293053937 494661.27740009356 0.0
8920554.311352473 3262623.406503225 0.0
8940351.791110307 -2846467.7454388174 0.0
7697688.536850962 -1729656.9285113267 0.0
3831713.6562368735 -741628.3242708817 0.0
5246157.024167349 -1452247.666513095 0.0
13644077.534080157 1283979.9174709585 0.0
9294931.4849424 -2590253.6553241597 0.0
7515161.398623303 -1319160.2161768642 0.0
4387715.191918677 -805377.4423086954 0.0
4967160.773484957 -1076340.586655032 0.0
VECTORS principal_stress_2 float
-2029186.602360209 10378933.037772598 0.0
1192543.497858671 13334716.216139957 0.0
-225378.66878186216 5988012.583868691 0.0
1786456.359515809 10111210.351740086 0.0
-1186235.8028907073 13606278.183642358 0.0
522731.93671653385 11859059.99474915 0.0
533676.6299473501 9027564.730691364 0.0
-2024896.4110734214 10916737.007017089 0.0
503937.86490626447 6695538.388891533 0.0
1085810.0303983209 10686720.601793967 0.0
-494605.84191562555 6698483.087043177 0.0
-565916.4543689886 9794724.175272146 0.0
419683.31760175247 6734698.316759852 0.0
368669.5379501959 9858023.315392992 0.0
287331.9809843913 9641029.134619687 0.0
-104295.1937533154 9525231.919722915 0.0
667758.2499568551 8146906.369792317 0.0
340324.6067527402 9382772.101955635 0.0
3559.6805976397377 8984029.694971524 0.0
7884.329532341636 6989122.34909525 0.0
-777394.8710950722 9702602.787724884 0.0
-645752.831531583 8123688.643433806 0.0
-41693.940373054356 7172181.29070878 0.0
-16821.662057729154 9463927.360933403 0.0
-252246.6058188557 10179965.844141087 0.0
405671.5295477124 11204729.44941586 0.0
419843.2823180408 8775195.064944668 0.0
1291401.299067688 6249759.398969498 0.0
-456663.8814238893 6200317.760734418 0.0
173553.56986737697 10992841.75287108 0.0
102581.51232226573 7013036.558706329 0.0
421112.8481446256 9315556.660420045 0.0
-2160.279097126471 6309666.193641948 0.0
-34283.25403673479 6706268.342500283 0.0
382751.7565918776 6211323.9982953975 0.0
745523.2723590562 9309727.274288246 0.0
-82885.9833122886 10152409.40367294 0.0
561355.7279538488 7220774.52011003 0.0
-523781.6320380318 11177612.821111592 0.0
-2047915.1914722198 6158656.511819638 0.0
-302569.7529343599 6500031.34966367 0.0
-320112.47548991715 10882063.509878185 0.0
284003.10922580614 6502563.299747843 0.0
-420306.15317406354 6285049.0395061355 0.0
-225462.9845839513 6827232.848051448 0.0
-79165.77468601565 9928336.721058741 0.0
375030.39924406714 10691932.239721905 0.0
-663933.8749155556 8958263.645398023 0.0
212399.15391256896 6814434.097686572 0.0
-657242.2219155428 7487488.2272767285 0.0
39310.1766545418 460178.35058429634 0.0
-657198.5312476488 7658721.137602051 0.0
-1336587.943153527 7946897.110094061 0.0
344279.80110284727 10906382.129189404 0.0
225363.78050744906 9351910.22340118 0.0
-1303102.0156444416 6353299.735832136 0.0
89774.85084612304 7016540.473653045 0.0
2169707.1108118924 10527209.050391663 0.0
-70676.45755364001 10147031.298470976 0.0
-554992.9504740292 10862454.364045147 0.0
-1024164.2607055407 7494392.901348406 0.0
-2004097.2434728635 9514714.290453333 0.0
367893.22316978703 8669987.031674542 0.0
-1663071.48013267 8494100.414415311 0.0
-329386.6647919124 11163679.797744146 0.0
-679937.7528090362 9210893.5342905 0.0
309919.72302216943 8266728.25656706 0.0
-3673775.9014197765 7798446.052825382 0.0
23306.234309668827 4229760.280489052 0.0
-932178.1758030071 8531512.001143299 0.0
-368855.61450844404 9611026.37306314 0.0
-463822.41588520666 9498718.78985838 0.0
-237747.34215115744 10218534.251011943 0.0
1944953.2642979717 13796116.91211519 0.0
-1225495.6317561949 5061945.692025577 0.0
-1750827.8112034365 5983027.099923133 0.0
-1446450.5608687082 4911346.762903031 0.0
-494661.2774000933 2628340.929305394 0.0
-3262623.4065032257 8920554.311352473 0.0
2846467.745438817 8940351.791110307 0.0
1729656.928511327 7697688.536850962 0.0
741628.324270882 3831713.6562368735 0.0
1452247.6665130951 5246157.024167349 0.0
-1283979.9174709576 13644077.534080157 0.0
2590253.6553241606 9294931.484942399 0.0
1319160.2161768645 7515161.398623303 0.0
805377.4423086953 4387715.191918677 0.0
1076340.5866550324 4967160.773484957 0.0
POINT_DATA 57
VECTORS displacements float
0.0 0.0 0.0
3.369558373454521e-05 2.1722396544463328e-06 0.0
3.9734766455127674e-05 1.1173923433616006e-06 0.0
7.208968409266226e-05 1.750770879014384e-06 0.0
7.746428594879142e-05 2.934818677941319e-06 0.0
0.00011708249781789119 6.1525746938196236e-06 0.0
0.00011656308189247585 -4.3674600419581055e-06 0.0
7.744946743518691e-05 -2.0293295010795897e-06 0.0
7.128144999537978e-05 -7.01674371441679e-07 0.0
3.9410047242228986e-05 -1.435446679478447e-06 0.0
3.422908849489001e-05 -2.661721082027085e-06 0.0
0.0 0.0 0.0
1.983379852750902e-05 4.478779956351287e-06 0.0
3.494355997785205e-05 1.810862330341931e-06 0.0
5.584517310009546e-05 1.861232444025695e-06 0.0
7.621718316118684e-05 2.5500382368128166e-06 0.0
9.235432650100306e-05 3.841816447453469e-06 0.0
0.00010643446284187254 9.257386711924837e-07 0.0
9.191419899833155e-05 -2.6209752819257e-06 0.0
7.66932635491509e-05 -1.261792133592237e-06 0.0
5.5164094676677484e-05 -1.694648042619011e-06 0.0
3.5526484601830586e-05 -2.2881995691993475e-06 0.0
1.982264244856587e-05 -4.478498937519919e-06 0.0
0.0 0.0 0.0
4.8808707595788736e-05 -1.8594857540083067e-07 0.0
4.131195881620833e-05 -9.636877221533751e-07 0.0
6.13934523505345e-05 5.532794988399303e-07 0.0
4.614320369000529e-05 -2.484316500747902e-08 0.0
6.229358091878455e-05 7.226943523765383e-08 0.0
5.27415721376339e-05 1.0103330063165923e-07 0.0
4.90649751449804e-05 3.0294635298040824e-07 0.0
4.256853630377369e-05 6.616885599828482e-07 0.0
3.4472616926231324e-05 2.3251573040687896e-06 0.0
3.835970535573102e-05 3.321877751507946e-07 0.0
2.857165965240944e-05 1.38236099830668e-06 0.0
3.335196252058757e-05 -2.4020960112071706e-06 0.0
1.9285655345853182e-05 -6.027351625990349e-08 0.0
9.242271856130415e-06 8.623048862053194e-07 0.0
9.212626318258612e-06 -8.062712780616142e-07 0.0
5.5498125175018676e-05 6.057655678789176e-07 0.0
5.985028343900228e-05 2.219077900856633e-07 0.0
6.692250948921916e-05 6.099437280246227e-07 0.0
9.911988388622945e-05 3.1675558612200544e-08 0.0
8.832101386697182e-05 3.8401740474836915e-07 0.0
8.278496868646455e-05 -2.0357253934882623e-06 0.0
7.78189221812426e-05 1.905461987565647e-07 0.0
7.796371481214644e-05 2.682932108390628e-06 0.0
7.659834543514807e-05 -1.6896864234554023e-06 0.0
9.979170769903478e-05 1.3379982983404813e-06 0.0
7.412963537305874e-05 -1.1848795213756786e-06 0.0
7.267746339743247e-05 9.7298972581705e-07 0.0
7.090154298723981e-05 1.5115266415498502e-06 0.0
6.82911092168228e-05 -3.1681864639245155e-07 0.0
7.061052629273707e-05 3.8525517050338386e-08 0.0
6.501016271016468e-05 1.8922572595399676e-07 0.0
5.584154646957186e-05 -3.1512377996952606e-07 0.0
6.625228651750059e-05 8.359354744712621e-07 0.0