# vtk DataFile Version 2.0
Really cool data
ASCII
DATASET POLYDATA
POINTS 50 float
0.0 0.0 0
0.125 0.0 0
0.125 0.025 0
0.175 0.025 0
0.175 0.0 0
0.3 0.0 0
0.3 0.1 0
0.175 0.1 0
0.175 0.07500000000000001 0
0.125 0.07500000000000001 0
0.125 0.1 0
0.0 0.1 0
0.06250000013078053 0.0 0
0.125 0.01250000001946666 0
0.1500000000542101 0.025 0
0.175 0.01249999996954492 0
0.2375000000379471 0.0 0
0.3 0.05000000007786663 0
0.2374999999024218 0.09999999999999999 0
0.175 0.08749999992410586 0
0.1499999998970008 0.07500000000000002 0
0.125 0.08749999998373698 0
0.06249999984482352 0.1 0
0.0 0.05000000007786663 0
0.1368030376589693 0.05881183609165548 0
0.117775623603241 0.06013038045187373 0
0.162500000027105 0.041237976310672 0
0.107309198575727 0.08007003580073291 0
0.19212308841714 0.01780898906300205 0
0.1901864428630649 0.07906464689515667 0
0.1094436020031466 0.01874551931480652 0
0.1291338851563814 0.04361389724778988 0
0.1114151539582876 0.04074826126195277 0
0.1624999999485004 0.06043297861285827 0
0.1787552186679302 0.06017424107710374 0
0.1459442698801169 0.044214050543324 0
0.08315066519904095 0.03531547250623295 0
0.08792340551106274 0.06122065477279754 0
0.04632429568687593 0.05307658962797577 0
0.172304892364689 0.04902546201312089 0
0.1850949657786914 0.04563198790008897 0
0.1965712954394372 0.05628532213281995 0
0.2087061817377232 0.03693437174515411 0
0.253205755539793 0.04383466385996593 0
0.2266612590318197 0.06518650077867166 0
0.1762118450318149 0.03854480335931212 0
0.1861593669885893 0.03182859057267874 0
0.02720607395441411 0.0257691474264606 0
0.1502126267551182 0.05641628411908355 0
0.2685302890076256 0.07336950662279432 0
POLYGONS 74 296
3 5 17 43
3 8 20 33
3 28 16 42
3 2 31 32
3 20 9 24
3 30 2 32
3 18 29 44
3 25 27 37
3 24 9 25
3 16 5 43
3 8 33 34
3 27 22 37
3 12 36 38
3 42 43 44
3 33 26 39
3 26 33 48
3 35 26 48
3 11 23 38
3 22 11 38
3 14 26 35
3 44 43 49
3 32 25 37
3 42 16 43
3 6 18 49
3 29 34 41
3 24 31 35
3 24 25 31
3 12 38 47
3 0 12 47
3 7 19 29
3 1 13 30
3 21 10 27
3 15 4 28
3 18 44 49
3 31 25 32
3 28 42 46
3 37 22 38
3 30 32 36
3 43 17 49
3 20 24 48
3 34 33 39
3 33 20 48
3 17 6 49
3 23 0 47
3 39 26 45
3 24 35 48
3 34 39 40
3 40 39 45
3 38 23 47
3 3 15 28
3 9 21 27
3 13 2 30
3 19 8 29
3 41 42 44
3 36 32 37
3 45 3 46
3 42 40 46
3 34 40 41
3 41 40 42
3 40 45 46
3 3 28 46
3 4 16 28
3 10 22 27
3 12 1 30
3 2 14 31
3 14 3 26
3 26 3 45
3 18 7 29
3 29 8 34
3 25 9 27
3 12 30 36
3 31 14 35
3 29 41 44
3 36 37 38
CELL_DATA 74
SCALARS mises double 1
LOOKUP_TABLE default
5894472.396526802 15312170.030006431 5342599.887581192 9545174.908059936 15029573.829975715 9395092.524357786 6055429.869837652 8854279.321552847 10378296.922564853 7810918.035147356 11054699.549426826 5754462.004891975 7371571.530009416 6808853.954919081 10274872.311137132 11854622.812491912 11982453.196412457 6097563.326495317 6680799.654484674 12174507.844615698 6688162.02175667 9053027.199467456 7051069.783639096 8538886.99916452 9902419.475093544 11474601.767706022 10740453.772577234 6902605.470004465 6404767.991335047 2085801.1160581466 2233787.388340408 2512617.943470479 2706883.1293500885 6731439.260106037 10438674.4503748 8636041.157508437 7495428.418737463 7946257.431162791 5008927.621043033 12631651.35578412 10993022.867504578 12416096.817604192 7264722.826422421 5834562.646974324 11389510.725534251 12497672.323840193 10360483.32348394 9542744.436404783 6251258.155611789 5364584.988408773 6235326.895441598 5836447.674982078 6976800.963798549 8531759.197553577 9113065.894947253 8562428.109323822 8071354.040195065 8925633.024615914 9465392.405673621 10371384.610247547 8707491.732192526 4280270.054824548 3963849.1981161754 3975134.1277748733 14375887.313630933 15159407.185309455 10509021.805448579 4268799.803923607 8837971.642938077 8624996.681835148 5694222.881449894 11629633.07642097 7081219.281014274 7723036.91560121
VECTORS principal_stress_1 float
5731447.147302964 -1269030.9629884618 0.0
15937557.930119248 1480317.5119059982 0.0
5369631.575667351 -853252.117919541 0.0
10086462.218828049 1820008.899440733 0.0
15689007.551131226 -1504627.7029421912 0.0
9660143.347189112 1418238.542744406 0.0
6012775.485913123 489104.19147592166 0.0
9037294.901653472 -1722185.0930804515 0.0
11288441.788231203 -2352394.10489762 0.0
7623201.7495931145 -588621.2654626641 0.0
12031360.348115373 2509388.4123445395 0.0
5510518.814452068 -378652.95195700723 0.0
7123575.551576549 125384.47888513874 0.0
6530843.771209752 73491.98436285641 0.0
11174258.730798433 134730.90540502383 0.0
12899456.989907343 288228.38197835494 0.0
12609362.45099321 -374942.18638792937 0.0
6653628.108186562 -119195.16160512363 0.0
6685850.139420471 -551768.1725835606 0.0
12536895.486014156 -278493.8151464056 0.0
6814313.851309976 392628.77465901006 0.0
9025723.629028868 223694.8163486942 0.0
6874292.388706229 -649281.929991964 0.0
8143259.497025988 752965.2875189886 0.0
10221002.2914194 1748513.1135705558 0.0
12339136.145688115 45133.83432156081 0.0
11512433.766544867 305688.53985321964 0.0
6748859.061461715 380293.010864809 0.0
6596201.048702327 475353.6457335775 0.0
1607177.9923611667 161405.84749945122 0.0
1689239.47383043 59503.04476636307 0.0
2139178.4353764225 -199919.38506439194 0.0
2098948.712427041 -50312.76512207619 0.0
6736273.33118059 464201.02592608787 0.0
10763035.955961589 -496163.91832517204 0.0
9005348.195125502 -1988478.7573494895 0.0
7298309.5424351245 -83343.65787697096 0.0
8118960.051871542 1783599.419872394 0.0
5011798.531973683 718570.686968855 0.0
12917687.747042188 -453173.7579271438 0.0
11730102.890298491 70554.93607387684 0.0
12685434.03056419 284740.970810616 0.0
6878354.070732585 1253364.5090305414 0.0
6370639.237641763 312014.1739760326 0.0
12172474.779555736 -309753.329436396 0.0
13115858.998310909 -291396.46131670265 0.0
10894917.71732129 550478.786970485 0.0
10104774.27549115 -861072.3094734431 0.0
6452801.893441043 51939.14505502462 0.0
7427568.611197326 -4576737.007526828 0.0
8033861.078384337 -4452114.740547542 0.0
7813077.018943156 4596152.929595996 0.0
8506959.442870276 4256047.336593738 0.0
8221707.301164031 -100553.23760364752 0.0
8695646.978785334 -93271.3384518104 0.0
9369114.4196305 -2100358.9181930386 0.0
8324807.78986136 -1033600.8545458167 0.0
9201911.945654884 -6103.000643355358 0.0
9316407.658407802 206476.1639989281 0.0
10834789.861727376 -1107011.505784002 0.0
9170075.156270355 -1728564.4812752227 0.0
4933451.982795596 -1800660.6761024392 0.0
4566360.772091902 -1676934.5645283004 0.0
4577463.160731505 1681999.4851569424 0.0
15211549.751982745 1956830.1990674734 0.0
15902702.623824997 -1445532.841660191 0.0
11516294.512798468 -2424958.0518185655 0.0
4966928.916929207 1936076.2332921654 0.0
9381655.548814468 1565639.4015407702 0.0
9040941.463000223 -1320194.001358882 0.0
5456025.275276556 271961.2058841964 0.0
12125300.008062258 478212.48732672085 0.0
7218515.366832144 1555693.753648283 0.0
7091226.701263436 76712.44667619072 0.0
VECTORS principal_stress_2 float
1269030.962988462 5731447.147302964 0.0
-1480317.5119059964 15937557.930119248 0.0
853252.1179195412 5369631.575667351 0.0
-1820008.8994407316 10086462.218828049 0.0
1504627.7029421928 15689007.551131226 0.0
-1418238.5427444063 9660143.347189112 0.0
-489104.19147592166 6012775.485913123 0.0
1722185.0930804512 9037294.901653472 0.0
2352394.1048976206 11288441.788231203 0.0
588621.2654626652 7623201.7495931145 0.0
-2509388.41234454 12031360.348115373 0.0
378652.95195700816 5510518.814452068 0.0
-125384.47888513755 7123575.551576549 0.0
-73491.98436285602 6530843.771209752 0.0
-134730.90540502407 11174258.730798433 0.0
-288228.38197835314 12899456.989907343 0.0
374942.18638793123 12609362.45099321 0.0
119195.16160512333 6653628.108186562 0.0
551768.1725835615 6685850.139420471 0.0
278493.81514640746 12536895.486014156 0.0
-392628.774659009 6814313.851309976 0.0
-223694.8163486943 9025723.629028868 0.0
649281.9299919639 6874292.388706229 0.0
-752965.2875189885 8143259.497025988 0.0
-1748513.1135705549 10221002.2914194 0.0
-45133.834321560695 12339136.145688115 0.0
-305688.5398532184 11512433.766544867 0.0
-380293.0108648087 6748859.061461715 0.0
-475353.6457335773 6596201.048702327 0.0
-161405.84749945093 1607177.9923611667 0.0
-59503.04476636292 1689239.47383043 0.0
199919.38506439197 2139178.4353764225 0.0
50312.765122076205 2098948.712427041 0.0
-464201.02592608787 6736273.33118059 0.0
496163.9183251727 10763035.955961589 0.0
1988478.75734949 9005348.1951255 0.0
83343.65787697099 7298309.5424351245 0.0
-1783599.4198723934 8118960.051871543 0.0
-718570.6869688543 5011798.531973683 0.0
453173.75792714354 12917687.747042188 0.0
-70554.93607387735 11730102.890298491 0.0
-284740.9708106165 12685434.03056419 0.0
-1253364.5090305412 6878354.070732585 0.0
-312014.1739760317 6370639.237641763 0.0
309753.32943639706 12172474.779555736 0.0
291396.4613167038 13115858.998310909 0.0
-550478.7869704849 10894917.71732129 0.0
861072.3094734433 10104774.27549115 0.0
-51939.14505502379 6452801.893441043 0.0
4576737.00752683 7427568.611197325 0.0
4452114.740547543 8033861.078384336 0.0
-4596152.929595997 7813077.018943155 0.0
-4256047.33659374 8506959.442870276 0.0
100553.23760364752 8221707.301164031 0.0
93271.33845181103 8695646.978785334 0.0
2100358.9181930395 9369114.419630498 0.0
1033600.8545458167 8324807.789861361 0.0
6103.000643355564 9201911.945654884 0.0
-206476.16399892684 9316407.658407802 0.0
1107011.5057840021 10834789.861727376 0.0
1728564.4812752227 9170075.156270353 0.0
1800660.6761024394 4933451.982795596 0.0
1676934.5645283011 4566360.772091902 0.0
-1681999.4851569417 4577463.160731506 0.0
-1956830.1990674718 15211549.751982745 0.0
1445532.8416601918 15902702.623824997 0.0
2424958.051818565 11516294.512798468 0.0
-1936076.233292165 4966928.916929208 0.0
-1565639.4015407702 9381655.548814468 0.0
1320194.0013588825 9040941.463000223 0.0
-271961.20588419645 5456025.275276556 0.0
-478212.4873267207 12125300.008062258 0.0
-1555693.7536482827 7218515.366832144 0.0
-76712.44667619087 7091226.701263436 0.0
POINT_DATA 50
VECTORS displacements float
0.0 0.0 0.0
3.2060531283782005e-05 1.4978577286512407e-06 0.0
4.156424037830466e-05 7.099314506748666e-07 0.0
7.803091175676398e-05 -5.731587313581483e-07 0.0
8.705246896482256e-05 2.97939329259319e-07 0.0
0.00012361334852396437 8.965284783377548e-07 0.0
0.00012675920665726947 -8.88016584055562e-06 0.0
8.847991760857616e-05 -3.1694047813471954e-06 0.0
7.90441325100908e-05 -2.0779898025613714e-06 0.0
4.1772606296428115e-05 -1.4383674781428433e-06 0.0
3.251788462498158e-05 -2.3116844780797092e-06 0.0
0.0 0.0 0.0
1.9553053396694978e-05 4.501462009220032e-06 0.0
3.364089117009667e-05 7.866047057795214e-07 0.0
5.9339826757360397e-05 1.1691375077033594e-06 0.0
8.575826935630171e-05 -5.297740862129e-07 0.0
0.00010053685797736784 1.8408360107172965e-06 0.0
0.00011564392811904577 -3.2984920665506007e-06 0.0
0.00010192606880590576 -5.749591271911373e-06 0.0
8.66957050762403e-05 -2.515316077886491e-06 0.0
6.0248780537255045e-05 -2.9026050109334965e-06 0.0
3.4131564066702495e-05 -1.6660318494147828e-06 0.0
2.004169436751094e-05 -4.853678388030404e-06 0.0
0.0 0.0 0.0
5.2141867675452904e-05 -6.917877598525867e-07 0.0
4.194023048523219e-05 -1.2067452014506236e-06 0.0
6.735094344800474e-05 -1.0147261443203504e-06 0.0
3.317368351243643e-05 -3.0322640111762233e-06 0.0
8.709324596685664e-05 7.467434241449573e-07 0.0
8.676589542976103e-05 -3.821802635349074e-06 0.0
3.3042126435609954e-05 2.2376409076548465e-06 0.0
4.795656188743137e-05 -4.852232420596501e-07 0.0
3.894651018799238e-05 4.4113943619367944e-07 0.0
6.781600606611964e-05 -1.1091740498811062e-06 0.0
7.670975607394924e-05 -1.817551492953764e-06 0.0
5.7598810882696235e-05 -1.8496980127035538e-07 0.0
2.690772403715354e-05 1.4838237856746553e-06 0.0
2.8986308026258285e-05 -1.7246792759968238e-06 0.0
1.42243818120336e-05 -5.098035997329684e-07 0.0
7.260576900866474e-05 -1.1672510771918035e-06 0.0
7.891461940934822e-05 -1.1872585615115596e-06 0.0
8.434112141280566e-05 -2.285320568105686e-06 0.0
8.93464939815118e-05 -2.690012312104769e-07 0.0
0.00010385196801113744 -2.462833799397976e-06 0.0
9.634032241416777e-05 -3.3979308918647944e-06 0.0
7.524955524269096e-05 -7.923626799531545e-07 0.0
8.114388304818478e-05 -3.4027337615615e-07 0.0
7.993600358745678e-06 7.84886299446299e-07 0.0
6.039231735201355e-05 -1.1219786234826555e-06 0.0
0.00011036580479207191 -4.183630528938313e-06 0.0