# vtk DataFile Version 2.0
Really cool data
ASCII
DATASET POLYDATA
POINTS 50 float
0.0 0.0 0
0.125 0.0 0
0.125 0.025 0
0.175 0.025 0
0.175 0.0 0
0.3 0.0 0
0.3 0.1 0
0.175 0.1 0
0.175 0.07500000000000001 0
0.125 0.07500000000000001 0
0.125 0.1 0
0.0 0.1 0
0.06250000013078053 0.0 0
0.125 0.01250000001946666 0
0.1500000000542101 0.025 0
0.175 0.01249999996954492 0
0.2375000000379471 0.0 0
0.3 0.05000000007786663 0
0.2374999999024218 0.09999999999999999 0
0.175 0.08749999992410586 0
0.1499999998970008 0.07500000000000002 0
0.125 0.08749999998373698 0
0.06249999984482352 0.1 0
0.0 0.05000000007786663 0
0.1368030376589693 0.05881183609165548 0
0.117775623603241 0.06013038045187373 0
0.162500000027105 0.041237976310672 0
0.107309198575727 0.08007003580073291 0
0.19212308841714 0.01780898906300205 0
0.1901864428630649 0.07906464689515667 0
0.1094436020031466 0.01874551931480652 0
0.1291338851563814 0.04361389724778988 0
0.1114151539582876 0.04074826126195277 0
0.1624999999485004 0.06043297861285827 0
0.1787552186679302 0.06017424107710374 0
0.1459442698801169 0.044214050543324 0
0.08315066519904095 0.03531547250623295 0
0.08792340551106274 0.06122065477279754 0
0.04632429568687593 0.05307658962797577 0
0.172304892364689 0.04902546201312089 0
0.1850949657786914 0.04563198790008897 0
0.1965712954394372 0.05628532213281995 0
0.2087061817377232 0.03693437174515411 0
0.253205755539793 0.04383466385996593 0
0.2266612590318197 0.06518650077867166 0
0.1762118450318149 0.03854480335931212 0
0.1861593669885893 0.03182859057267874 0
0.02720607395441411 0.0257691474264606 0
0.1502126267551182 0.05641628411908355 0
0.2685302890076256 0.07336950662279432 0
POLYGONS 74 296
3 5 17 43
3 8 20 33
3 28 16 42
3 2 31 32
3 20 9 24
3 30 2 32
3 18 29 44
3 25 27 37
3 24 9 25
3 16 5 43
3 8 33 34
3 27 22 37
3 12 36 38
3 42 43 44
3 33 26 39
3 26 33 48
3 35 26 48
3 11 23 38
3 22 11 38
3 14 26 35
3 44 43 49
3 32 25 37
3 42 16 43
3 6 18 49
3 29 34 41
3 24 31 35
3 24 25 31
3 12 38 47
3 0 12 47
3 7 19 29
3 1 13 30
3 21 10 27
3 15 4 28
3 18 44 49
3 31 25 32
3 28 42 46
3 37 22 38
3 30 32 36
3 43 17 49
3 20 24 48
3 34 33 39
3 33 20 48
3 17 6 49
3 23 0 47
3 39 26 45
3 24 35 48
3 34 39 40
3 40 39 45
3 38 23 47
3 3 15 28
3 9 21 27
3 13 2 30
3 19 8 29
3 41 42 44
3 36 32 37
3 45 3 46
3 42 40 46
3 34 40 41
3 41 40 42
3 40 45 46
3 3 28 46
3 4 16 28
3 10 22 27
3 12 1 30
3 2 14 31
3 14 3 26
3 26 3 45
3 18 7 29
3 29 8 34
3 25 9 27
3 12 30 36
3 31 14 35
3 29 41 44
3 36 37 38
CELL_DATA 74
SCALARS mises double 1
LOOKUP_TABLE default
4322613.726104721 11228924.455214744 3917907.0115693845 6999794.47079134 11021687.715595305 6889734.134994319 4440648.356144916 6493138.682549965 7610751.592799327 5728006.766161047 8106779.153469772 4219938.990214491 5405819.074824358 4993159.536613491 7534906.333911178 8693390.011402486 8787132.416644718 4471546.480098872 4899253.296581444 8927972.475295974 4904652.001721525 6638886.548252067 5170784.762598651 6261850.212807264 7261773.83204592 8414707.954406083 7876332.703807171 5061910.527741134 4696829.677611484 1529587.1864874389 1638110.64745891 1842586.7624677494 1985047.6985813878 4936388.610419527 7655028.04641048 6333097.4411753565 5496647.537494444 5827254.84650955 3673213.204327416 9263211.08340763 8061550.088515615 9105137.60919249 5327462.886398459 4278679.163029161 8352307.925861633 9164959.758597061 7597687.646705457 6998012.794846792 4584255.960599551 3934031.2704737326 4572574.958990691 4280059.550711538 5116319.070390128 6256623.444386516 6682915.018643182 6279114.502346137 5918993.282170282 6545464.219717245 6941287.705629511 7605682.30373508 6385494.424365832 3138865.6569214724 2906823.708415894 2915097.394554247 10542317.043765234 11116898.828305475 7706616.504482598 3130452.1515053567 6481178.784298897 6324997.937714482 4175763.31150541 8528397.491606379 5192893.548196069 5663560.374801279
VECTORS principal_stress_1 float
151203.14122808343 682893.3554262125 0.0
-72969.80020710756 785615.5240997082 0.0
26319.11585229596 165629.77407981336 0.0
-71362.7363149251 395491.22199010395 0.0
-80147.6247272807 -835712.8391911882 0.0
-14604.616878674868 99477.40688655288 0.0
9862.816021098099 -121247.98647662175 0.0
42310.615015574054 222028.1123686439 0.0
-181446.93593154903 -870710.0437175048 0.0
25856.380337300092 334864.564688332 0.0
-196362.18806472444 941466.1483766817 0.0
25941.10518587811 377519.6983297023 0.0
6166.699471137906 -350353.96707083844 0.0
4351.259517401276 -386673.4088418431 0.0
-18841.71607022925 1562686.8213204662 0.0
-40494.588138203435 1812306.5966905076 0.0
-29455.263120567586 -990584.9548557928 0.0
-17455.02560821037 -974362.1087629299 0.0
4952.217555447929 60006.694982969275 0.0
-12191.86342092177 -548838.4631001522 0.0
-9095.544372952972 157858.76636180686 0.0
1190.3551086580335 -48028.90119010352 0.0
32445.85728826933 343521.51122480555 0.0
60347.657073773335 -652655.0954407473 0.0
-8019.419347819135 46877.83173815231 0.0
-5334.8632400897395 1458497.927942401 0.0
-34013.957278855276 1280988.2585030233 0.0
14126.206508046766 -250690.3205481265 0.0
-17692.54980277235 245509.03650515835 0.0
58199.51875174262 -579514.2316893305 0.0
21923.640847824416 -622393.0166202806 0.0
45991.303473759115 492116.3826820967 0.0
16861.795980489744 703440.6651390819 0.0
2764.7337150524195 -40120.55327833208 0.0
-21559.14255397641 -467671.706704152 0.0
19353.156376492105 87645.85047784561 0.0
3196.919278922203 279950.59341162146 0.0
75751.9389135744 -344823.48392730806 0.0
21725.58813332954 -151528.96254673513 0.0
-14453.922715289058 -412008.10305084015 0.0
-7335.608366845405 1219580.7365759497 0.0
-8970.060418573037 399623.2413131226 0.0
163163.2308215687 -895425.4447363433 0.0
-45234.92424272726 923597.0905430915 0.0
-32834.594868715 -1290311.4832166077 0.0
-21716.501391168084 -977467.4987340402 0.0
-41311.572406669766 817626.7511066961 0.0
-69177.99948242992 -811811.1126200843 0.0
-2502.3914212518216 310891.4496778432 0.0
694080.3730751399 1126420.3261456045 0.0
560094.0185678874 1010692.1762431994 0.0
597487.8745821628 -1015679.6028119585 0.0
479541.5799158253 -958504.5580763639 0.0
5310.203164871461 434187.27404259297 0.0
6184.5718918725315 576584.9914808314 0.0
-165387.28515696042 -737746.479787702 0.0
-25355.80949083084 -204220.26494962673 0.0
-282.54742989426467 -426016.1062220326 0.0
4884.699072936037 -220402.42791587525 0.0
-58395.11048046169 -571537.6468106833 0.0
-49436.612742360194 -262262.39126725285 0.0
-99521.4646305822 -272669.01172918954 0.0
-82649.69607445278 -225058.47154856563 0.0
-79813.08632850401 217206.64342469868 0.0
-128582.82585273201 999547.1521450696 0.0
-90852.36839482636 -999491.7829703327 0.0
-221898.56162289894 -1053811.7084950143 0.0
-78377.71539357823 201075.006416064 0.0
-85376.99759931065 511597.7424178492 0.0
-55955.242495396524 -383192.22131607 0.0
17474.467870402423 -350568.89111427387 0.0
-29742.596336834078 754137.361863613 0.0
67081.9058397224 -311264.1977284078 0.0
9037.871200799796 -835452.3465040347 0.0
VECTORS principal_stress_2 float
-682893.3554262125 151203.1412280835 0.0
-785615.5240997082 -72969.80020710752 0.0
-165629.7740798134 26319.11585229593 0.0
-395491.22199010395 -71362.73631492507 0.0
835712.8391911882 -80147.62472728074 0.0
-99477.40688655288 -14604.616878674862 0.0
121247.98647662175 9862.816021098091 0.0
-222028.1123686439 42310.61501557402 0.0
870710.0437175048 -181446.9359315491 0.0
-334864.564688332 25856.380337300037 0.0
-941466.1483766817 -196362.18806472438 0.0
-377519.6983297023 25941.105185878052 0.0
350353.96707083844 6166.699471137885 0.0
386673.4088418431 4351.259517401252 0.0
-1562686.8213204662 -18841.716070229155 0.0
-1812306.5966905076 -40494.588138203326 0.0
990584.9548557928 -29455.263120567863 0.0
974362.1087629299 -17455.02560821043 0.0
-60006.694982969275 4952.217555447934 0.0
548838.4631001522 -12191.863420921683 0.0
-157858.76636180686 -9095.544372952963 0.0
48028.90119010352 1190.3551086580305 0.0
-343521.51122480555 32445.857288269424 0.0
652655.0954407473 60347.65707377329 0.0
-46877.83173815231 -8019.419347819132 0.0
-1458497.927942401 -5334.86324008965 0.0
-1280988.2585030233 -34013.957278855196 0.0
250690.3205481265 14126.206508046751 0.0
-245509.03650515835 -17692.549802772337 0.0
579514.2316893305 58199.51875174258 0.0
622393.0166202806 21923.640847824376 0.0
-492116.3826820967 45991.30347375915 0.0
-703440.6651390819 16861.795980489784 0.0
40120.55327833208 2764.7337150524168 0.0
467671.706704152 -21559.14255397644 0.0
-87645.85047784561 19353.156376492087 0.0
-279950.59341162146 3196.9192789222207 0.0
344823.48392730806 75751.93891357438 0.0
151528.96254673513 21725.588133329533 0.0
412008.10305084015 -14453.922715289174 0.0
-1219580.7365759497 -7335.608366845331 0.0
-399623.2413131226 -8970.060418573012 0.0
895425.4447363433 163163.23082156864 0.0
-923597.0905430915 -45234.924242727204 0.0
1290311.4832166077 -32834.59486871508 0.0
977467.4987340402 -21716.501391168145 0.0
-817626.7511066961 -41311.572406669715 0.0
811811.1126200843 -69177.9994824298 0.0
-310891.4496778432 -2502.3914212518025 0.0
-1126420.3261456045 694080.3730751402 0.0
-1010692.1762431993 560094.0185678875 0.0
1015679.6028119585 597487.8745821628 0.0
958504.5580763639 479541.5799158252 0.0
-434187.27404259297 5310.203164871392 0.0
-576584.9914808314 6184.571891872439 0.0
737746.479787702 -165387.28515696048 0.0
204220.26494962673 -25355.8094908309 0.0
426016.1062220326 -282.5474298943854 0.0
220402.42791587525 4884.699072936023 0.0
571537.6468106833 -58395.11048046173 0.0
262262.3912672529 -49436.61274236016 0.0
272669.0117291896 -99521.46463058217 0.0
225058.47154856566 -82649.69607445275 0.0
-217206.64342469868 -79813.086328504 0.0
-999547.1521450696 -128582.82585273196 0.0
999491.7829703328 -90852.36839482619 0.0
1053811.7084950143 -221898.561622899 0.0
-201075.006416064 -78377.71539357823 0.0
-511597.7424178492 -85376.99759931062 0.0
383192.22131606995 -55955.24249539663 0.0
350568.89111427387 17474.4678704024 0.0
-754137.3618636131 -29742.59633683403 0.0
311264.1977284078 67081.90583972239 0.0
835452.3465040347 9037.871200799744 0.0
POINT_DATA 50
VECTORS displacements float
0.0 0.0 0.0
-2.3511056274773486e-05 -1.098429001010929e-06 0.0
-3.0480442944090108e-05 -5.206163971615878e-07 0.0
-5.722266862162695e-05 4.2031640299594655e-07 0.0
-6.383847724086992e-05 -2.184888414568605e-07 0.0
-9.064978891757393e-05 -6.57454217447736e-07 0.0
-9.295675154866431e-05 6.512121616407402e-06 0.0
-6.488527291295585e-05 2.324230172987913e-06 0.0
-5.796569717406659e-05 1.5238591885449745e-06 0.0
-3.0633244617380635e-05 1.0548028173047362e-06 0.0
-2.384644872498649e-05 1.6952352839251024e-06 0.0
0.0 0.0 0.0
-1.4338905824242999e-05 -3.3010721400946993e-06 0.0
-2.46699868580709e-05 -5.768434509050023e-07 0.0
-4.351587295539766e-05 -8.573675056491522e-07 0.0
-6.288939752795463e-05 3.885009965560948e-07 0.0
-7.372702918340314e-05 -1.3499464078593927e-06 0.0
-8.48055472873003e-05 2.418894182137067e-06 0.0
-7.474578379099755e-05 4.216366932734981e-06 0.0
-6.357685038924287e-05 1.8445651237833965e-06 0.0
-4.4182439060653704e-05 2.1285770080178684e-06 0.0
-2.5029813648915164e-05 1.2217566895708248e-06 0.0
-1.4697242536174694e-05 3.559364151222293e-06 0.0
0.0 0.0 0.0
-3.8237369628665485e-05 5.073110238918784e-07 0.0
-3.075616902250363e-05 8.849464810637769e-07 0.0
-4.939069186187017e-05 7.441325058349001e-07 0.0
-2.4327367909120056e-05 2.2236602748625515e-06 0.0
-6.38683803756949e-05 -5.476118443730023e-07 0.0
-6.362832331515807e-05 2.8026552659226257e-06 0.0
-2.4230892719447312e-05 -1.640936665613571e-06 0.0
-3.5168145384116366e-05 3.5583037751039153e-07 0.0
-2.8560774137861092e-05 -3.2350225320871265e-07 0.0
-4.973173778182107e-05 8.13394303246113e-07 0.0
-5.625382112089611e-05 1.3328710948327286e-06 0.0
-4.2239127980643925e-05 1.3564452093156985e-07 0.0
-1.9732330960579275e-05 -1.0881374428280913e-06 0.0
-2.1256625885922755e-05 1.264764802397661e-06 0.0
-1.0431213328824644e-05 3.7385597313750674e-07 0.0
-5.324423060635416e-05 8.559841232739599e-07 0.0
-5.7870720900188706e-05 8.706562784417805e-07 0.0
-6.185015570272416e-05 1.6759017499441358e-06 0.0
-6.552076225310869e-05 1.972675695543145e-07 0.0
-7.615810987483416e-05 1.8060781195584743e-06 0.0
-7.064956977038972e-05 2.4918159873674815e-06 0.0
-5.5183007177973395e-05 5.810659652989498e-07 0.0
-5.9505514235335534e-05 2.49533809181145e-07 0.0
-5.861973596413502e-06 -5.755832862606214e-07 0.0
-4.428769939147663e-05 8.227843238872561e-07 0.0
-8.093492351418611e-05 3.0679957212213934e-06 0.0