# vtk DataFile Version 2.0
Really cool data
ASCII
DATASET POLYDATA
POINTS 52 float
0.0 0.0 0
0.125 0.0 0
0.125 0.005079999999999998 0
0.175 0.005079999999999998 0
0.175 0.0 0
0.3 0.0 0
0.3 0.1 0
0.175 0.1 0
0.175 0.09492 0
0.125 0.09492 0
0.125 0.1 0
0.0 0.1 0
0.06250000013078053 0.0 0
0.125 0.00254000000610981 0
0.1500000000542101 0.005079999999999998 0
0.175 0.002539999993287158 0
0.2375000000379471 0.0 0
0.3 0.05000000007786663 0
0.2374999999024218 0.09999999999999999 0
0.175 0.09745999992410584 0
0.1499999998970008 0.09492000000000002 0
0.125 0.09745999996747394 0
0.06249999984482352 0.1 0
0.0 0.05000000007786663 0
0.1374999999485004 0.07868202374594171 0
0.162500000027105 0.02131797628574772 0
0.1375000000271051 0.02131797630922138 0
0.1502568657476155 0.03370794158904161 0
0.1624999999485004 0.07868202370134177 0
0.1499999999228267 0.0642908939387555 0
0.1500000000277371 0.02199106421410445 0
0.1355566709497793 0.03869705855944468 0
0.1101899323856434 0.074992628110852 0
0.1668283392680912 0.0388323564989719 0
0.122540729034561 0.02780858768979774 0
0.116101822301347 0.04494967050132467 0
0.1787834884743826 0.02597953366357658 0
0.1875575745116209 0.04331231258103375 0
0.1700956461541981 0.06017106496292832 0
0.1931820152518949 0.07149538203588726 0
0.2168332785276501 0.05832620091187175 0
0.1314984533024973 0.05901502906444057 0
0.1012360930226507 0.0225686272795871 0
0.08937127601636347 0.05772688620236523 0
0.1520593279922092 0.04919933630715929 0
0.1751944153386483 0.07631711767503933 0
0.2535466188639497 0.0502855105280409 0
0.04519960322466579 0.04370968065464436 0
0.1499999999292071 0.07914373534650976 0
0.2051696077115733 0.0209775114646104 0
0.1137043555054349 0.06060215957862156 0
0.2723370003892753 0.02500000003893329 0
POLYGONS 78 312
3 41 31 44
3 22 11 47
3 20 9 24
3 28 29 38
3 2 26 34
3 8 28 45
3 28 38 45
3 29 41 44
3 46 40 49
3 18 39 40
3 25 3 36
3 24 32 41
3 29 24 41
3 17 6 46
3 23 0 47
3 24 9 32
3 6 18 46
3 0 12 47
3 42 43 47
3 29 28 48
3 26 27 31
3 16 46 49
3 27 26 30
3 27 25 33
3 16 5 51
3 37 36 49
3 43 22 47
3 25 27 30
3 12 42 47
3 46 16 51
3 26 14 30
3 41 32 50
3 38 29 44
3 18 40 46
3 24 29 48
3 28 20 48
3 14 25 30
3 33 38 44
3 38 39 45
3 27 33 44
3 33 37 38
3 35 31 41
3 20 24 48
3 38 37 39
3 33 25 36
3 26 31 34
3 40 37 49
3 5 17 51
3 33 36 37
3 43 35 50
3 34 31 35
3 17 46 51
3 42 35 43
3 39 37 40
3 34 35 42
3 35 41 50
3 12 1 42
3 1 13 42
3 13 2 42
3 2 14 26
3 2 34 42
3 14 3 25
3 3 15 49
3 36 3 49
3 15 4 49
3 4 16 49
3 19 18 7
3 8 18 19
3 18 8 39
3 8 20 28
3 39 8 45
3 9 21 22
3 9 22 32
3 21 10 22
3 11 23 47
3 32 22 43
3 31 27 44
3 32 43 50
CELL_DATA 78
SCALARS mises double 1
LOOKUP_TABLE default
6935593.401749303 6581374.269214968 8197134.546205657 6953126.530068947 7392806.975158619 7329451.672334972 7077207.064640894 6892348.609566529 6199701.277405061 6749844.768289885 7348305.285654888 7013515.481387739 7013562.39496939 5372207.922754862 5962658.366726192 7213753.900362852 7532673.878183778 6543290.276635766 6959753.559061408 7353928.194038384 7024432.31637679 6375098.776830944 7364296.648532654 6996284.9333271375 8612889.213216279 6882670.217649088 6851022.263943893 7367540.309662786 6750183.838557935 6733546.785831266 7391255.775117569 7107017.496349398 6905572.454107899 6484631.241578601 7356922.465769547 7384935.576573403 7397912.413813427 6902967.5248909965 6749311.9143822435 6892089.491597496 6816316.576443745 6939449.570758549 7387319.684712868 6900970.827013213 7009262.186011808 6912746.50605626 6752159.761409484 7526942.530336289 6963286.883348129 6988968.095456824 7068608.189766608 5200564.700571478 7145497.640216106 6457590.7149042385 7006200.80019955 7109981.38387241 6095617.776523009 6206719.794095498 7547867.417888784 8226594.699174416 6748729.067335488 8239317.565909109 7362847.028343341 6758241.274055578 6292535.678179344 6413860.049007856 6548619.70218342 6477765.432575889 6558143.476117829 8245467.039178006 7038420.136636074 6094145.87926643 6193698.839958991 6160804.332004787 5962658.366726192 6655087.307427677 6899521.611181682 7034844.635147538
VECTORS principal_stress_1 float
7063416.779202563 7522.924185307922 0.0
6742421.767479436 -351454.2932635646 0.0
8248699.911232096 -177608.48018782408 0.0
7142946.757686413 93631.57522679406 0.0
7448513.981614665 358050.9762804096 0.0
7396904.302743446 439305.66086114885 0.0
7241112.389516518 32353.311825260404 0.0
7075949.605530203 21761.799569795574 0.0
6240598.275363855 -49992.04808361751 0.0
6760333.818028867 308212.32476744 0.0
7408550.388937095 -411314.29992217396 0.0
7109577.327721017 13247.087052787821 0.0
7155865.883194066 -113552.2409784322 0.0
5294052.915593698 1181570.9280302972 0.0
6506025.940940795 70969.82382404248 0.0
7234946.995821396 -433498.35600952344 0.0
7566145.652120431 402480.4601940483 0.0
6702188.643442988 317142.7236512927 0.0
6866201.818772872 61042.401207476236 0.0
7479155.560131801 57389.20765965841 0.0
7192406.88753821 108382.40713583128 0.0
6569021.161026033 -308539.79073740344 0.0
7487473.566242277 31457.078641707012 0.0
7176516.698896825 -128519.82828362643 0.0
8265234.396183369 -715276.1568186875 0.0
6950294.128053857 -165612.15198268127 0.0
6849836.19863658 107847.7579391097 0.0
7493610.599364788 -58762.44229870555 0.0
6701033.945514747 -119008.83010260748 0.0
6963109.729119155 -358587.03504894365 0.0
7466298.493216966 42091.80885409031 0.0
7072169.418168998 -58627.0919936411 0.0
7083278.890639309 -23930.295974418987 0.0
6458455.150502361 380192.477430798 0.0
7482346.260404633 -37294.368499134645 0.0
7457523.687179754 58568.94942864296 0.0
7473725.774314463 -51331.687431216786 0.0
7061723.9827673705 -4470.49349153045 0.0
6857108.637704581 141835.27163111404 0.0
7075103.255542559 12716.57642350318 0.0
6964207.5859215 12322.98318545006 0.0
7060964.892943197 -20406.317583925967 0.0
7460006.815759779 -31387.854653307742 0.0
7015625.275809681 7741.779948260288 0.0
7163118.422071457 -34817.486375145185 0.0
7054352.010733992 -5055.412274203778 0.0
6860250.801521545 -147748.47762963155 0.0
7094901.700252471 -1166998.9434962408 0.0
7021624.472385601 -153785.18071352344 0.0
6957016.888644563 -30925.270293810154 0.0
7089544.038369949 42793.24627632913 0.0
5265239.674414701 -917173.7995503985 0.0
7053127.797970423 44598.61943336173 0.0
6503173.188643717 140273.1096466723 0.0
6990279.808556825 -30246.28734017991 0.0
7104388.172255816 39352.60360664962 0.0
6133668.135015998 245801.56245474407 0.0
6178727.45864262 217354.59194787708 0.0
7401883.451040126 627216.2400756032 0.0
8272058.393544528 183154.92350849495 0.0
6747286.262705286 394877.77652407 0.0
8299335.967493838 -210137.3923972399 0.0
7267877.658149315 -782227.4183584629 0.0
6795156.51203937 -503987.3558345989 0.0
6287524.346336506 -252488.76635247248 0.0
6485014.2504034825 -387773.5560896995 0.0
6559435.390143271 266575.4626368248 0.0
6563627.809137126 799202.8255613941 0.0
6603819.438630493 399004.563140181 0.0
8311666.094787678 232536.38038003547 0.0
7078967.276216896 489679.26595625916 0.0
6174923.763493303 -751873.295513101 0.0
6228375.688270067 -259504.14222976682 0.0
6170979.623003396 -250788.6144677025 0.0
6506025.940940795 70969.82382404248 0.0
6609654.254277112 23784.093748372405 0.0
7088541.488096954 -27043.809222126976 0.0
6973717.107200571 -122935.54231944897 0.0
VECTORS principal_stress_2 float
-7522.924185306865 7063416.779202563 0.0
351454.2932635649 6742421.767479436 0.0
177608.48018782475 8248699.911232096 0.0
-93631.57522679369 7142946.757686413 0.0
-358050.97628040926 7448513.981614665 0.0
-439305.66086114815 7396904.302743446 0.0
-32353.31182526036 7241112.389516518 0.0
-21761.79956979479 7075949.605530203 0.0
49992.0480836178 6240598.275363855 0.0
-308212.324767439 6760333.818028867 0.0
411314.29992217367 7408550.388937095 0.0
-13247.087052787603 7109577.327721017 0.0
113552.24097843307 7155865.883194066 0.0
-1181570.9280302967 5294052.915593698 0.0
-70969.8238240419 6506025.940940795 0.0
433498.3560095235 7234946.995821396 0.0
-402480.4601940487 7566145.652120431 0.0
-317142.7236512916 6702188.643442988 0.0
-61042.401207475385 6866201.818772872 0.0
-57389.207659657994 7479155.560131801 0.0
-108382.40713583131 7192406.887538209 0.0
308539.79073740344 6569021.161026033 0.0
-31457.0786417065 7487473.566242277 0.0
128519.82828362612 7176516.698896825 0.0
715276.1568186875 8265234.396183369 0.0
165612.1519826822 6950294.128053857 0.0
-107847.75793910958 6849836.19863658 0.0
58762.442298706475 7493610.599364788 0.0
119008.83010260756 6701033.945514747 0.0
358587.0350489441 6963109.729119155 0.0
-42091.80885408906 7466298.493216966 0.0
58627.09199364189 7072169.418168998 0.0
23930.295974419965 7083278.890639309 0.0
-380192.47743079683 6458455.150502361 0.0
37294.36849913548 7482346.260404633 0.0
-58568.94942864218 7457523.687179754 0.0
51331.68743121701 7473725.774314463 0.0
4470.4934915308195 7061723.9827673705 0.0
-141835.2716311139 6857108.637704581 0.0
-12716.576423503064 7075103.255542559 0.0
-12322.983185450174 6964207.5859215 0.0
20406.317583926637 7060964.892943197 0.0
31387.854653307528 7460006.815759779 0.0
-7741.779948259557 7015625.275809681 0.0
34817.48637514537 7163118.422071457 0.0
5055.412274204163 7054352.010733992 0.0
147748.4776296314 6860250.801521545 0.0
1166998.9434962417 7094901.700252471 0.0
153785.18071352338 7021624.472385601 0.0
30925.270293811143 6957016.888644563 0.0
-42793.24627632845 7089544.038369949 0.0
917173.7995503986 5265239.674414701 0.0
-44598.61943336087 7053127.797970423 0.0
-140273.10964667166 6503173.188643717 0.0
30246.287340181076 6990279.808556825 0.0
-39352.60360664947 7104388.172255816 0.0
-245801.56245474322 6133668.135015998 0.0
-217354.59194787676 6178727.45864262 0.0
-627216.2400756031 7401883.451040126 0.0
-183154.92350849387 8272058.393544528 0.0
-394877.77652406885 6747286.262705286 0.0
210137.39239723992 8299335.967493838 0.0
782227.4183584626 7267877.658149315 0.0
503987.3558345986 6795156.51203937 0.0
252488.76635247294 6287524.346336505 0.0
387773.5560896993 6485014.2504034825 0.0
-266575.4626368242 6559435.390143271 0.0
-799202.8255613934 6563627.809137126 0.0
-399004.56314018025 6603819.438630493 0.0
-232536.38038003413 8311666.094787678 0.0
-489679.26595625945 7078967.276216896 0.0
751873.2955131009 6174923.763493303 0.0
259504.14222976763 6228375.688270067 0.0
250788.61446770275 6170979.623003396 0.0
-70969.8238240419 6506025.940940795 0.0
-23784.09374837235 6609654.254277112 0.0
27043.80922212728 7088541.488096954 0.0
122935.5423194497 6973717.107200571 0.0
POINT_DATA 52
VECTORS displacements float
0.0 0.0 0.0
3.830437364321572e-05 3.1185607527575677e-06 0.0
3.8668594889114386e-05 2.738557045233649e-06 0.0
5.853166184005232e-05 2.463255774715193e-06 0.0
5.8845122675654096e-05 2.8290062746250655e-06 0.0
0.0001033843883232711 5.23560276882907e-06 0.0
0.00010139276101190366 -4.1083622473575e-06 0.0
5.903035851784111e-05 -3.2481382652049922e-06 0.0
5.8709734253786e-05 -2.939491298487393e-06 0.0
3.886626515509813e-05 -3.0604271224794108e-06 0.0
3.8565409736621714e-05 -3.3507957334481963e-06 0.0
0.0 0.0 0.0
1.9928649381448086e-05 3.383499157145051e-06 0.0
3.8395713819725904e-05 2.960020939533637e-06 0.0
4.8587514678466554e-05 2.3991070090666403e-06 0.0
5.878733858982715e-05 2.6731038425465705e-06 0.0
7.822457102829297e-05 2.206388161558371e-06 0.0
9.326071346819456e-05 -5.531505864731316e-07 0.0
7.871743883219908e-05 -3.358116072937931e-06 0.0
5.8947826338847415e-05 -3.089390658356956e-06 0.0
4.87542093371101e-05 -2.8194722538550182e-06 0.0
3.864266369053681e-05 -3.201449307659128e-06 0.0
2.004421626071256e-05 -3.4446495555336078e-06 0.0
0.0 0.0 0.0
4.4295541610987554e-05 -1.7306509386597863e-06 0.0
5.3129587279419416e-05 1.2263999322223495e-06 0.0
4.4188143174981315e-05 1.3460200001104891e-06 0.0
4.878966537464243e-05 6.076923257807042e-07 0.0
5.3224850353248425e-05 -1.6818249327315597e-06 0.0
4.877314259935254e-05 -9.149200986842923e-07 0.0
4.86596081094716e-05 1.3088083507199618e-06 0.0
4.385010809615906e-05 4.479540933887534e-07 0.0
3.50654538110929e-05 -1.947135183050175e-06 0.0
5.4380626191251756e-05 3.2751107556525794e-07 0.0
3.9274617864650147e-05 1.2770376990813409e-06 0.0
3.730991139013096e-05 1.968084952997881e-07 0.0
5.862716338419097e-05 1.1245695176900086e-06 0.0
6.127546546112182e-05 5.06337374954002e-08 0.0
5.5538034289916713e-05 -7.941484683056722e-07 0.0
6.334834440875767e-05 -1.5644591090023143e-06 0.0
7.057168420262477e-05 -6.881743539648216e-07 0.0
4.253872980485578e-05 -6.670715535023735e-07 0.0
3.204678548362931e-05 1.96199605412113e-06 0.0
2.8311433706322694e-05 -6.877552191530106e-07 0.0
4.9441636107075525e-05 -1.6455265840920004e-07 0.0
5.756350541926379e-05 -1.7206647359909576e-06 0.0
8.164447201925755e-05 -4.8786762551126264e-08 0.0
1.3571967263432935e-05 2.9613000643586496e-07 0.0
4.876076581855813e-05 -1.7996780885383892e-06 0.0
6.748615063179482e-05 1.3453043476809303e-06 0.0
3.645560590075222e-05 -8.972839634626922e-07 0.0
8.878526251305941e-05 1.0477916762870974e-06 0.0