# vtk DataFile Version 2.0
Really cool data
ASCII
DATASET POLYDATA
POINTS 54 float
0.0 0.0 0
0.125 0.0 0
0.125 0.006739999999999999 0
0.175 0.006739999999999999 0
0.175 0.0 0
0.3 0.0 0
0.3 0.1 0
0.175 0.1 0
0.175 0.09326000000000001 0
0.125 0.09326000000000001 0
0.125 0.1 0
0.0 0.1 0
0.06250000013078053 0.0 0
0.125 0.003370000007535227 0
0.1500000000542101 0.006739999999999999 0
0.175 0.003369999990097434 0
0.2375000000379471 0.0 0
0.3 0.05000000007786663 0
0.2374999999024218 0.09999999999999999 0
0.175 0.09662999995934242 0
0.1499999998970008 0.09326 0
0.125 0.09662999992681635 0
0.06249999984482352 0.1 0
0.0 0.05000000007786663 0
0.1374999999485004 0.07702202374594172 0
0.162500000027105 0.02297797628574772 0
0.1375000000271051 0.02297797630922139 0
0.15000000003944 0.03611499246297446 0
0.1624999999485004 0.07702202370134177 0
0.1499999999228334 0.06263467479875762 0
0.1500000000369651 0.02220273626448589 0
0.1334889787522495 0.03970757730641391 0
0.1217151230887368 0.06786455653682359 0
0.1668408411718039 0.04021929642922099 0
0.1220848709945849 0.02936708897626131 0
0.1800040874241139 0.02729867002564187 0
0.1876578956326586 0.04463393796839768 0
0.1176145921580964 0.04832494289923633 0
0.1699743174669117 0.06014745691467906 0
0.1903500549554818 0.07515947375702174 0
0.2163050512546002 0.0595258815276689 0
0.1050836202851317 0.0250314981198488 0
0.1339903398730661 0.05708864970652959 0
0.1031485442365187 0.06840010528736552 0
0.06512647427884277 0.04768973952883365 0
0.2535222917587032 0.05063261747283911 0
0.1559896344886637 0.04937483365720235 0
0.1753434017093981 0.07695739401296336 0
0.2053481167961285 0.02200585786319868 0
0.1499999999292088 0.07748468056151027 0
0.03230819016109265 0.06684804665732202 0
0.03198693291414319 0.03290755725280446 0
0.2724305294941732 0.02500000003893329 0
0.1439019910487564 0.04750030710297569 0
POLYGONS 82 328
3 20 9 24
3 32 37 42
3 2 26 34
3 8 28 47
3 18 39 40
3 25 3 35
3 28 29 38
3 45 40 48
3 17 6 45
3 24 9 32
3 6 18 45
3 28 38 47
3 29 28 49
3 26 27 31
3 16 45 48
3 27 25 33
3 29 24 42
3 36 35 48
3 27 26 30
3 16 5 52
3 24 32 42
3 25 27 30
3 0 12 51
3 45 16 52
3 26 14 30
3 22 11 50
3 43 22 44
3 37 32 43
3 24 29 49
3 18 40 45
3 28 20 49
3 38 29 46
3 14 25 30
3 33 38 46
3 29 42 53
3 12 41 44
3 33 36 38
3 38 39 47
3 27 33 46
3 20 24 49
3 41 43 44
3 40 36 48
3 38 36 39
3 37 31 42
3 46 29 53
3 11 23 50
3 33 25 35
3 5 17 52
3 26 31 34
3 42 31 53
3 41 37 43
3 23 0 51
3 33 35 36
3 44 22 50
3 34 31 37
3 17 45 52
3 44 50 51
3 31 27 53
3 50 23 51
3 12 44 51
3 27 46 53
3 39 36 40
3 34 37 41
3 12 1 41
3 1 13 41
3 13 2 41
3 2 14 26
3 2 34 41
3 14 3 25
3 3 15 48
3 35 3 48
3 15 4 48
3 4 16 48
3 19 18 7
3 19 8 39
3 8 20 28
3 39 8 47
3 9 21 43
3 32 9 43
3 21 10 22
3 18 19 39
3 21 22 43
CELL_DATA 82
SCALARS mises double 1
LOOKUP_TABLE default
8678335.655761637 7214229.0594096165 7592701.093435308 7409298.651392092 6765475.2472192235 7530505.071522122 7086645.351117517 6231292.044777807 5398650.325853808 7677356.101894204 7552848.051181889 7342499.10637119 7591139.826963052 7119664.280682679 6388933.7215718 7102881.104612123 7148991.154452445 6963427.920315773 7603869.776652236 8613981.33883668 6941964.431719436 7606129.692118902 6481363.249525658 6738458.358259798 7645476.886417682 6485781.533850964 6928219.411534311 7026675.671452914 7606972.618769677 6533856.7854023045 7637299.97205161 7051606.527068217 7647047.031777405 7047094.561762695 7005902.6964117745 6805575.0661328025 6902148.938445091 6884046.552930466 6995508.827416547 7649890.663372076 7009586.846970685 6912230.20761447 7134916.80921988 7063892.129098693 6971037.368911363 5965218.197141134 7121947.697375946 7514030.2464251155 6999503.999673401 7095614.294424336 7405328.491599892 5967972.282301396 7097130.163197372 6897159.6845857 7249010.072443869 5187076.226416446 6561922.160940133 7038699.305916885 6109651.09237516 6868520.344087817 6961769.283209311 6521289.236108459 7167427.685955145 6004445.956057631 5951635.329038592 7834940.898125074 8728912.321742073 6795547.295009782 8749201.480060713 7530607.204041506 6748187.76314357 6140365.189539673 6252350.773019605 6398539.197359247 7876962.6820991635 8747301.295084724 7073566.759270929 7699807.353500081 6988728.760678937 6084477.826368194 6345025.492101928 6096828.458596292
VECTORS principal_stress_1 float
8745949.895899555 -232420.5281700227 0.0
7285188.15839506 -25063.529033889077 0.0
7702903.436294784 486064.24842290534 0.0
7534895.955195239 627843.1509881881 0.0
6759934.758647781 323478.03759314184 0.0
7623117.653770104 -569710.8566897756 0.0
7337303.705820411 117383.09897227256 0.0
6243893.708769304 -50113.489107090536 0.0
5316466.630385589 1186055.186281391 0.0
7769146.914440206 -431321.4606414964 0.0
7573383.380833863 411921.53084932035 0.0
7547308.853836761 17842.925679617914 0.0
7761911.566726313 70731.21320256854 0.0
7357285.2302053915 139939.14637111392 0.0
6570129.569026223 -311802.2644493253 0.0
7343796.085082242 -161037.2062074047 0.0
7375056.148615927 -137366.2757670027 0.0
7024923.127056638 -175335.82436715896 0.0
7770534.111869189 60665.25047546311 0.0
8258028.403199342 -724262.1871067203 0.0
7127087.256345862 -23694.399270661026 0.0
7773169.90896217 -78093.38972668591 0.0
6747980.037849251 384099.1546746159 0.0
6956059.870005604 -363945.743295602 0.0
7740714.122099811 58124.420338814736 0.0
6749444.027552645 -383470.3508107834 0.0
6844109.334052813 31697.377889535568 0.0
7046144.264612556 111626.08364218131 0.0
7779387.673975091 -71537.88976995632 0.0
6496013.4584361855 388486.8801217875 0.0
7731207.2166779665 86324.87475937679 0.0
7291756.736475777 -29078.122086492196 0.0
7742546.860345171 -70203.12929134326 0.0
7255859.35725007 5175.016950692572 0.0
7237192.632940537 35862.262191927366 0.0
6716698.968439644 -66281.94068232692 0.0
7093107.078107323 33597.028719054295 0.0
7017351.920971575 155321.97567633534 0.0
7243461.062489314 23421.876818335408 0.0
7744824.571316656 -47934.20005510126 0.0
6865723.448700674 24334.148824410495 0.0
7003486.979278774 -151546.0191233206 0.0
7243476.860892009 45600.86981884771 0.0
7225347.462160569 6804.275205354123 0.0
7220502.529337856 -9016.590074263695 0.0
6510542.938490344 -205809.14167979467 0.0
7329648.116561679 -39766.71651884199 0.0
7086929.063863055 -1170261.8341324404 0.0
7185242.294771266 -20159.097419865626 0.0
7260713.30168383 -4569.074303584094 0.0
7308636.295087602 40799.685034612376 0.0
6513537.581475063 205319.3619822232 0.0
7168429.208021874 -192936.51117579744 0.0
6801391.991266489 -88837.338053213 0.0
7286243.996362997 31867.788682957354 0.0
5245543.059140168 -913113.9938185845 0.0
6850516.883028044 25465.35785770819 0.0
7266212.059479839 -36881.20152488668 0.0
6354208.367586845 -3641.501816791328 0.0
6774956.089776558 88249.1962313182 0.0
7216676.594968173 8338.144980082057 0.0
6551508.689043399 205134.56670811187 0.0
7164125.073088516 -81150.64228073416 0.0
6038888.915877927 365485.20155186026 0.0
5961352.6838350445 324916.7423556955 0.0
7734029.153540752 708405.2617424594 0.0
8805838.60247604 264755.7500435898 0.0
6832793.935011614 492719.6855841775 0.0
8837150.802520217 -293569.7108843914 0.0
7442387.36212109 -1017607.7223504465 0.0
6812603.565414841 -634395.4394010848 0.0
6138209.436306039 -329710.52807147417 0.0
6340812.968013376 -472415.0931079439 0.0
6417141.9356530225 346012.29788508744 0.0
7848403.272182439 717117.1155951518 0.0
8854212.063071346 336239.7524555856 0.0
7171040.122827476 677792.2238649997 0.0
7644024.581760602 -535019.1021823527 0.0
7020161.842487359 -453100.64893672423 0.0
6102167.639694179 -329028.88546064973 0.0
6418245.68870961 593369.699191488 0.0
6101065.638025749 -285459.0301373427 0.0
VECTORS principal_stress_2 float
232420.52817002306 8745949.895899555 0.0
25063.529033889477 7285188.15839506 0.0
-486064.2484229046 7702903.436294784 0.0
-627843.1509881873 7534895.955195239 0.0
-323478.03759314155 6759934.758647781 0.0
569710.8566897754 7623117.653770104 0.0
-117383.09897227206 7337303.705820411 0.0
50113.48910709138 6243893.708769304 0.0
-1186055.18628139 5316466.630385589 0.0
431321.46064149746 7769146.914440206 0.0
-411921.5308493192 7573383.380833863 0.0
-17842.925679618085 7547308.853836761 0.0
-70731.21320256796 7761911.566726313 0.0
-139939.14637111398 7357285.2302053915 0.0
311802.26444932556 6570129.569026223 0.0
161037.20620740493 7343796.085082242 0.0
137366.2757670024 7375056.148615927 0.0
175335.82436715887 7024923.127056638 0.0
-60665.250475461944 7770534.111869189 0.0
724262.1871067202 8258028.403199342 0.0
23694.39927066194 7127087.256345862 0.0
78093.38972668597 7773169.90896217 0.0
-384099.1546746154 6747980.037849251 0.0
363945.743295603 6956059.870005604 0.0
-58124.42033881468 7740714.122099811 0.0
383470.3508107838 6749444.027552645 0.0
-31697.377889535343 6844109.334052813 0.0
-111626.083642181 7046144.264612556 0.0
71537.88976995704 7779387.673975091 0.0
-388486.88012178696 6496013.4584361855 0.0
-86324.87475937656 7731207.2166779665 0.0
29078.122086491967 7291756.736475777 0.0
70203.12929134445 7742546.860345171 0.0
-5175.016950691383 7255859.35725007 0.0
-35862.26219192769 7237192.632940537 0.0
66281.94068232714 6716698.968439644 0.0
-33597.02871905326 7093107.078107323 0.0
-155321.9756763349 7017351.920971575 0.0
-23421.87681833482 7243461.062489314 0.0
47934.20005510107 7744824.571316656 0.0
-24334.148824409498 6865723.448700674 0.0
151546.01912332038 7003486.979278774 0.0
-45600.86981884708 7243476.860892009 0.0
-6804.275205353436 7225347.462160569 0.0
9016.590074264794 7220502.529337856 0.0
205809.14167979444 6510542.938490344 0.0
39766.7165188425 7329648.116561679 0.0
1170261.8341324402 7086929.063863055 0.0
20159.097419865768 7185242.294771266 0.0
4569.0743035839905 7260713.30168383 0.0
-40799.685034611146 7308636.295087602 0.0
-205319.36198222297 6513537.581475063 0.0
192936.51117579752 7168429.208021874 0.0
88837.33805321381 6801391.991266489 0.0
-31867.78868295655 7286243.996362997 0.0
913113.9938185848 5245543.059140168 0.0
-25465.357857707815 6850516.883028044 0.0
36881.20152488767 7266212.059479839 0.0
3641.5018167923963 6354208.367586845 0.0
-88249.19623131774 6774956.089776558 0.0
-8338.14498008199 7216676.594968173 0.0
-205134.5667081117 6551508.689043399 0.0
81150.64228073535 7164125.073088516 0.0
-365485.20155185973 6038888.915877927 0.0
-324916.7423556948 5961352.683835045 0.0
-708405.2617424593 7734029.153540753 0.0
-264755.75004359003 8805838.60247604 0.0
-492719.685584177 6832793.935011614 0.0
293569.7108843919 8837150.802520217 0.0
1017607.7223504472 7442387.36212109 0.0
634395.4394010853 6812603.565414841 0.0
329710.528071474 6138209.436306039 0.0
472415.0931079447 6340812.968013375 0.0
-346012.29788508767 6417141.9356530225 0.0
-717117.1155951514 7848403.272182439 0.0
-336239.75245558406 8854212.063071346 0.0
-677792.223864999 7171040.122827476 0.0
535019.1021823535 7644024.581760602 0.0
453100.6489367253 7020161.842487359 0.0
329028.88546065055 6102167.639694179 0.0
-593369.6991914877 6418245.68870961 0.0
285459.03013734316 6101065.638025749 0.0
POINT_DATA 54
VECTORS displacements float
0.0 0.0 0.0
3.800271305732412e-05 3.1102455387290935e-06 0.0
3.859466345012358e-05 2.62520266979254e-06 0.0
5.971370770882975e-05 2.4592284751497386e-06 0.0
6.029788370579114e-05 2.9520274425754556e-06 0.0
0.0001043573410955859 5.557085503811693e-06 0.0
0.00010226390316808999 -3.7970575731302603e-06 0.0
6.0309104473700966e-05 -3.086637048172274e-06 0.0
5.976520732538726e-05 -2.6087254851288084e-06 0.0
3.870285741040278e-05 -2.8037270290502494e-06 0.0
3.822539314413427e-05 -3.269433017982571e-06 0.0
0.0 0.0 0.0
1.9918297686945784e-05 3.651822632248117e-06 0.0
3.816462533354497e-05 2.917633219455082e-06 0.0
4.913839067002169e-05 2.331413259445172e-06 0.0
6.017671862225147e-05 2.7498265850817362e-06 0.0
7.921246327174382e-05 2.528638435595495e-06 0.0
9.416569256136777e-05 -2.1024818241916793e-07 0.0
7.955221667810498e-05 -3.185403311596391e-06 0.0
6.0169428605029566e-05 -2.8820169926195113e-06 0.0
4.9179792113345766e-05 -2.527472776731255e-06 0.0
3.8374750499961726e-05 -3.074856381565403e-06 0.0
1.9926795695242404e-05 -3.670050934144523e-06 0.0
0.0 0.0 0.0
4.454986893158769e-05 -1.4025643345382195e-06 0.0
5.380320727285433e-05 1.1481676808600077e-06 0.0
4.4545283708759916e-05 1.2195810921814723e-06 0.0
4.9198430656386216e-05 5.156320435709132e-07 0.0
5.3803889907660806e-05 -1.3468247352985992e-06 0.0
4.9214615288546296e-05 -6.432410308520739e-07 0.0
4.917205636833683e-05 1.3245818191682296e-06 0.0
4.3518354946339104e-05 4.6667886128360065e-07 0.0
3.936678524010068e-05 -1.19199228335244e-06 0.0
5.498214591536088e-05 3.5876067337318977e-07 0.0
3.940893603644972e-05 1.2478244826530057e-06 0.0
5.981476321761561e-05 1.1961079553702186e-06 0.0
6.201825165335789e-05 1.377244336080647e-07 0.0
3.807138565426728e-05 2.4749384290030578e-08 0.0
5.6116033253368384e-05 -6.187205046522207e-07 0.0
6.33791943579401e-05 -1.686572202421948e-06 0.0
7.127321773584809e-05 -5.713174111043132e-07 0.0
3.350607701967944e-05 1.8888847103948267e-06 0.0
4.372367243554444e-05 -4.616535156458947e-07 0.0
3.3082151747097445e-05 -1.5526655472415522e-06 0.0
2.032457121081175e-05 1.7458858530991824e-07 0.0
8.254730871234713e-05 2.030139659863563e-07 0.0
5.126732435681559e-05 -6.391009882830061e-08 0.0
5.8409813856378736e-05 -1.5994746559450503e-06 0.0
6.845600733705772e-05 1.562426935454135e-06 0.0
4.918086749472533e-05 -1.499279108460367e-06 0.0
9.705261073508599e-06 -6.142128223641798e-07 0.0
9.613192721563078e-06 6.066558239777501e-07 0.0
8.976988849173502e-05 1.3561019725895372e-06 0.0
4.713327761247406e-05 2.6614646033229625e-08 0.0