# vtk DataFile Version 2.0
Really cool data
ASCII
DATASET POLYDATA
POINTS 50 float
0.0 0.0 0
0.125 0.0 0
0.125 0.025 0
0.175 0.025 0
0.175 0.0 0
0.3 0.0 0
0.3 0.1 0
0.175 0.1 0
0.175 0.07500000000000001 0
0.125 0.07500000000000001 0
0.125 0.1 0
0.0 0.1 0
0.06250000013078053 0.0 0
0.125 0.01250000001946666 0
0.1500000000542101 0.025 0
0.175 0.01249999996954492 0
0.2375000000379471 0.0 0
0.3 0.05000000007786663 0
0.2374999999024218 0.09999999999999999 0
0.175 0.08749999992410586 0
0.1499999998970008 0.07500000000000002 0
0.125 0.08749999998373698 0
0.06249999984482352 0.1 0
0.0 0.05000000007786663 0
0.1368030376589693 0.05881183609165548 0
0.117775623603241 0.06013038045187373 0
0.162500000027105 0.041237976310672 0
0.107309198575727 0.08007003580073291 0
0.19212308841714 0.01780898906300205 0
0.1901864428630649 0.07906464689515667 0
0.1094436020031466 0.01874551931480652 0
0.1291338851563814 0.04361389724778988 0
0.1114151539582876 0.04074826126195277 0
0.1624999999485004 0.06043297861285827 0
0.1787552186679302 0.06017424107710374 0
0.1459442698801169 0.044214050543324 0
0.08315066519904095 0.03531547250623295 0
0.08792340551106274 0.06122065477279754 0
0.04632429568687593 0.05307658962797577 0
0.172304892364689 0.04902546201312089 0
0.1850949657786914 0.04563198790008897 0
0.1965712954394372 0.05628532213281995 0
0.2087061817377232 0.03693437174515411 0
0.253205755539793 0.04383466385996593 0
0.2266612590318197 0.06518650077867166 0
0.1762118450318149 0.03854480335931212 0
0.1861593669885893 0.03182859057267874 0
0.02720607395441411 0.0257691474264606 0
0.1502126267551182 0.05641628411908355 0
0.2685302890076256 0.07336950662279432 0
POLYGONS 74 296
3 5 17 43
3 8 20 33
3 28 16 42
3 2 31 32
3 20 9 24
3 30 2 32
3 18 29 44
3 25 27 37
3 24 9 25
3 16 5 43
3 8 33 34
3 27 22 37
3 12 36 38
3 42 43 44
3 33 26 39
3 26 33 48
3 35 26 48
3 11 23 38
3 22 11 38
3 14 26 35
3 44 43 49
3 32 25 37
3 42 16 43
3 6 18 49
3 29 34 41
3 24 31 35
3 24 25 31
3 12 38 47
3 0 12 47
3 7 19 29
3 1 13 30
3 21 10 27
3 15 4 28
3 18 44 49
3 31 25 32
3 28 42 46
3 37 22 38
3 30 32 36
3 43 17 49
3 20 24 48
3 34 33 39
3 33 20 48
3 17 6 49
3 23 0 47
3 39 26 45
3 24 35 48
3 34 39 40
3 40 39 45
3 38 23 47
3 3 15 28
3 9 21 27
3 13 2 30
3 19 8 29
3 41 42 44
3 36 32 37
3 45 3 46
3 42 40 46
3 34 40 41
3 41 40 42
3 40 45 46
3 3 28 46
3 4 16 28
3 10 22 27
3 12 1 30
3 2 14 31
3 14 3 26
3 26 3 45
3 18 7 29
3 29 8 34
3 25 9 27
3 12 30 36
3 31 14 35
3 29 41 44
3 36 37 38
CELL_DATA 74
SCALARS mises double 1
LOOKUP_TABLE default
2750753.5895632445 7145679.419169136 2493213.1493810117 4454415.099182616 7013801.046723087 4384376.629172523 2825867.3387660948 4131996.8587519773 4843205.071683569 3645095.019360154 5158859.948535535 2685415.5448592138 3440066.7285221 3177465.1882936754 4794940.420353056 5532157.328216667 5591811.469317919 2845529.539850953 3117706.438772021 5681436.976950547 3121142.32222493 4224746.04632299 3290499.1540274825 3984814.010865512 4621129.226742933 5354814.16090227 5012211.77984357 3221215.932236589 2988891.7855053446 973373.946044099 1042434.1465559877 1172554.9570279308 1263212.1053711278 3141338.3768674214 4871381.374440876 4030152.357913406 3497866.5860507246 3708253.653417449 2337499.674775204 5894770.605263572 5130077.3425752735 5794178.5324359555 3390204.1455544527 2722795.9362040227 5315104.9866432445 5832247.067705654 4834892.255733363 4453280.672942773 2917253.8121621483 2503472.2933676825 2909818.63253918 2723676.220922273 3255840.953278831 3981487.61541816 4252764.075380969 3995799.613425368 3766631.787159555 4165295.410974957 4417183.14065726 4839979.4059452 4063495.9917130126 1997459.0665949427 1849795.9961062341 1855062.8901350722 6708747.511355182 7074389.950351011 4904210.01777749 1992106.8945607662 4124386.8960959073 4024998.3373583374 2657304.052848262 5427162.132412534 3304569.1797187673 3604083.903169676
VECTORS principal_stress_1 float
2674675.3354080548 -592214.4493946144 0.0
7437527.034055639 690814.8388894612 0.0
2505828.0686447704 -398184.321695786 0.0
4707015.702119756 849337.486405679 0.0
7321536.857194571 -702159.5947063578 0.0
4508066.895354919 661844.6532807247 0.0
2805961.893426124 228248.6226887614 0.0
4217404.28743829 -803686.3767708775 0.0
5267939.50117457 -1097783.9156188914 0.0
3557494.149810121 -274689.92388257646 0.0
5614634.829120489 1171047.9257607823 0.0
2571575.446744299 -176704.7109132705 0.0
3324335.257402388 58512.75681306482 0.0
3047727.0932312175 34296.259369332 0.0
5214654.07437263 62874.42252235867 0.0
6019746.59529006 134506.57825658115 0.0
5884369.143796804 -174973.02031435032 0.0
3105026.4504870633 -55624.40874905755 0.0
3120063.3983962205 -257491.81387232878 0.0
5850551.226806582 -129963.780401659 0.0
3180013.1306113303 183226.76150753442 0.0
4212004.360213473 104390.91429605616 0.0
3208003.114729577 -302998.23399625043 0.0
3800187.765278798 351383.8008421932 0.0
4769801.069329051 815972.7863329258 0.0
5758263.534654429 21062.45601673357 0.0
5372469.091054274 142654.65193150044 0.0
3149467.5620154683 177470.0717369115 0.0
3078227.156061087 221831.70134233672 0.0
750016.396435201 75322.72883307729 0.0
788311.7544541898 27768.087557634222 0.0
998283.2698423252 -93295.7130300494 0.0
979509.3991325885 -23479.290390300725 0.0
3143594.2212176216 216627.1454321692 0.0
5022750.112782078 -231543.1618850813 0.0
4202495.824391895 -927956.7534297559 0.0
3405877.786469726 -38893.70700925353 0.0
3788848.024206727 832346.395940453 0.0
2338839.314921059 335332.98725213273 0.0
6028254.281953015 -211481.08703266605 0.0
5474048.015472613 32925.636834469115 0.0
5919869.214263274 132879.11971162065 0.0
3209898.5663418807 584903.4375475848 0.0
2972964.977566157 145606.6145221487 0.0
5680488.230459385 -144551.5537369827 0.0
6120734.199211755 -135985.0152811212 0.0
5084294.934749951 256890.10058621643 0.0
4715561.328562551 -401833.74442094384 0.0
3011307.5502724885 24238.267692345602 0.0
3466198.6852254113 -2135810.603512525 0.0
3749135.169912696 -2077653.545588858 0.0
3646102.60884014 2144871.3671447984 0.0
3969914.4066727934 1986155.423743745 0.0
3836796.7405432076 -46924.844215035024 0.0
4057968.590099826 -43526.62461084566 0.0
4372253.395827568 -980167.4951567505 0.0
3884910.3019352863 -482347.065454706 0.0
4294225.574638952 -2848.066966909063 0.0
4347656.907256954 96355.54319949179 0.0
5056235.268806114 -516605.36936586734 0.0
4279368.406259488 -806663.4245950911 0.0
2302277.591971283 -840308.3155144742 0.0
2130968.360309555 -782569.4634465427 0.0
2136149.4750080355 784933.0930732379 0.0
7098723.21759194 913187.4262314908 0.0
7421261.224451665 -674581.9927747691 0.0
5374270.772639337 -1131647.0908486547 0.0
2317900.161233624 903502.2422030078 0.0
4378105.92278007 730631.7207190268 0.0
4219106.016066772 -616090.5339674801 0.0
2546145.1284623914 126915.22941262467 0.0
5658473.337095705 223165.82741913185 0.0
3368640.5045216605 725990.4183691915 0.0
3309239.127256269 35799.14178222365 0.0
VECTORS principal_stress_2 float
592214.4493946149 2674675.3354080548 0.0
-690814.8388894608 7437527.034055639 0.0
398184.3216957865 2505828.0686447704 0.0
-849337.4864056789 4707015.702119756 0.0
702159.5947063582 7321536.857194571 0.0
-661844.6532807242 4508066.895354919 0.0
-228248.62268876153 2805961.893426124 0.0
803686.3767708776 4217404.287438289 0.0
1097783.9156188914 5267939.50117457 0.0
274689.9238825764 3557494.149810121 0.0
-1171047.9257607816 5614634.829120489 0.0
176704.7109132705 2571575.446744299 0.0
-58512.7568130649 3324335.257402388 0.0
-34296.25936933213 3047727.0932312175 0.0
-62874.422522358785 5214654.07437263 0.0
-134506.57825658144 6019746.59529006 0.0
174973.02031435008 5884369.143796804 0.0
55624.408749057584 3105026.4504870633 0.0
257491.81387232878 3120063.3983962205 0.0
129963.78040165889 5850551.226806582 0.0
-183226.7615075345 3180013.1306113303 0.0
-104390.9142960555 4212004.360213473 0.0
302998.2339962509 3208003.114729577 0.0
-351383.80084219325 3800187.765278798 0.0
-815972.7863329252 4769801.069329051 0.0
-21062.45601673335 5758263.534654429 0.0
-142654.6519314996 5372469.091054274 0.0
-177470.07173691146 3149467.5620154683 0.0
-221831.70134233683 3078227.156061087 0.0
-75322.72883307727 750016.396435201 0.0
-27768.087557634244 788311.7544541898 0.0
93295.71303004955 998283.2698423251 0.0
23479.29039030084 979509.3991325885 0.0
-216627.14543216894 3143594.2212176216 0.0
231543.16188508185 5022750.112782078 0.0
927956.753429756 4202495.824391895 0.0
38893.70700925389 3405877.786469726 0.0
-832346.3959404527 3788848.024206727 0.0
-335332.98725213244 2338839.314921059 0.0
211481.08703266675 6028254.281953015 0.0
-32925.63683446871 5474048.015472613 0.0
-132879.1197116207 5919869.214263274 0.0
-584903.437547585 3209898.5663418807 0.0
-145606.61452214883 2972964.977566157 0.0
144551.55373698258 5680488.230459385 0.0
135985.0152811216 6120734.199211755 0.0
-256890.10058621573 5084294.934749951 0.0
401833.7444209446 4715561.328562551 0.0
-24238.26769234512 3011307.5502724885 0.0
2135810.6035125256 3466198.6852254113 0.0
2077653.5455888582 3749135.169912696 0.0
-2144871.367144799 3646102.60884014 0.0
-1986155.4237437444 3969914.406672794 0.0
46924.844215035424 3836796.7405432076 0.0
43526.62461084608 4057968.590099826 0.0
980167.4951567511 4372253.395827568 0.0
482347.06545470643 3884910.3019352863 0.0
2848.066966909756 4294225.574638952 0.0
-96355.54319949199 4347656.907256954 0.0
516605.3693658682 5056235.268806114 0.0
806663.424595091 4279368.406259488 0.0
840308.3155144742 2302277.591971283 0.0
782569.463446543 2130968.360309555 0.0
-784933.0930732378 2136149.4750080355 0.0
-913187.4262314908 7098723.21759194 0.0
674581.9927747694 7421261.224451665 0.0
1131647.0908486547 5374270.772639337 0.0
-903502.2422030079 2317900.161233624 0.0
-730631.7207190266 4378105.92278007 0.0
616090.5339674806 4219106.016066772 0.0
-126915.22941262438 2546145.1284623914 0.0
-223165.8274191319 5658473.337095705 0.0
-725990.4183691917 3368640.5045216605 0.0
-35799.14178222313 3309239.127256269 0.0
POINT_DATA 50
VECTORS displacements float
0.0 0.0 0.0
1.496158126576494e-05 6.990002733705815e-07 0.0
1.9396645509875514e-05 3.313013436482729e-07 0.0
3.641442548648985e-05 -2.6747407463379495e-07 0.0
4.062448551691718e-05 1.3903835365434752e-07 0.0
5.7686229311183374e-05 4.183799565576167e-07 0.0
5.915429644005909e-05 -4.144077392259288e-06 0.0
4.129062821733554e-05 -1.4790555646286839e-06 0.0
3.6887261838042365e-05 -9.697285745286363e-07 0.0
1.9493882938333125e-05 -6.712381564666574e-07 0.0
1.5175012824991402e-05 -1.0787860897705279e-06 0.0
0.0 0.0 0.0
9.124758251790992e-06 2.1006822709693495e-06 0.0
1.5699082546045113e-05 3.670821960304455e-07 0.0
2.769191915343485e-05 5.45597503594895e-07 0.0
4.002052569960746e-05 -2.4722790689934787e-07 0.0
4.6917200389438324e-05 8.590568050014065e-07 0.0
5.396716645555471e-05 -1.5392962977236203e-06 0.0
4.7565498776089335e-05 -2.683142593558649e-06 0.0
4.045799570224546e-05 -1.173814169680357e-06 0.0
2.8116097584052357e-05 -1.354549005102291e-06 0.0
1.592806323112783e-05 -7.774815297268961e-07 0.0
9.35279070483844e-06 -2.265049914414187e-06 0.0
0.0 0.0 0.0
2.433287158187803e-05 -3.22834287931203e-07 0.0
1.957210755977503e-05 -5.631477606769551e-07 0.0
3.1430440275735515e-05 -4.7353886734949523e-07 0.0
1.548105230580367e-05 -1.4150565385489025e-06 0.0
4.064351478453308e-05 3.4848026460097756e-07 0.0
4.049075120055513e-05 -1.7835078964962313e-06 0.0
1.5419659003284647e-05 1.0442324235722642e-06 0.0
2.2379728880801317e-05 -2.2643751296116776e-07 0.0
1.8175038087729786e-05 2.058650702237191e-07 0.0
3.1647469497522494e-05 -5.176145566111773e-07 0.0
3.5797886167842967e-05 -8.481906967117559e-07 0.0
2.687944507859157e-05 -8.631924059283008e-08 0.0
1.2556937884004988e-05 6.924510999815067e-07 0.0
1.3526943745587203e-05 -8.048503287985168e-07 0.0
6.638044845615684e-06 -2.3790834654205132e-07 0.0
3.388269220404354e-05 -5.447171693561729e-07 0.0
3.6826822391029173e-05 -5.540539953720586e-07 0.0
3.935918999264263e-05 -1.0664829317826494e-06 0.0
4.16950305247055e-05 -1.2553390789822235e-07 0.0
4.84642517385308e-05 -1.149322439719056e-06 0.0
4.495881712661161e-05 -1.5857010828702387e-06 0.0
3.511645911325578e-05 -3.6976925064480324e-07 0.0
3.786714542248623e-05 -1.5879424220620153e-07 0.0
3.7303468340813172e-06 3.6628027307494e-07 0.0
2.8183081430939663e-05 -5.235900242919029e-07 0.0
5.150404223630023e-05 -1.9523609135045514e-06 0.0