# vtk DataFile Version 2.0
Really cool data
ASCII
DATASET POLYDATA
POINTS 57 float
0.0 0.0 0
0.125 0.0 0
0.125 0.0001 0
0.175 0.0001 0
0.175 0.0 0
0.3 0.0 0
0.3 0.1 0
0.175 0.1 0
0.175 0.0999 0
0.125 0.0999 0
0.125 0.1 0
0.0 0.1 0
0.06250000013078053 0.0 0
0.125 5.000000011187405e-05 0
0.1500000000542101 0.0001 0
0.175 4.999999986140697e-05 0
0.2375000000379471 0.0 0
0.3 0.05000000007786663 0
0.2374999999024218 0.09999999999999999 0
0.175 0.09994999999186799 0
0.1499999998970008 0.09990000000000002 0
0.125 0.09994999993494777 0
0.06249999984482352 0.1 0
0.0 0.05000000007786663 0
0.1374448333348746 0.08367118387394502 0
0.162500000027105 0.01633797628574772 0
0.1375000000271051 0.01633797630922139 0
0.1500000000396211 0.02966781911356602 0
0.1626003892913117 0.08482258645213654 0
0.1456265241350001 0.06977609650218908 0
0.1500000000370103 0.01561094292713378 0
0.1327082979642231 0.03406259131362435 0
0.1669939539025999 0.0338789231167114 0
0.1219413232947116 0.02278427552590102 0
0.1133051449077339 0.04168039561033317 0
0.1166889750287776 0.08368312726444418 0
0.1900539080677928 0.02274339237438189 0
0.185975160011573 0.04438352763273128 0
0.1433132109775063 0.04522478242670215 0
0.1294182433041446 0.06884435934682782 0
0.1063123330228702 0.06594525230897225 0
0.08131108407533306 0.04820204626795752 0
0.1704453252610106 0.05449126545912189 0
0.1928716424622369 0.06937105224586333 0
0.2166430290286882 0.04925121698595417 0
0.04496324697567922 0.05785844123821333 0
0.107722507486937 0.01611667391490051 0
0.2559574636901577 0.05900932966274854 0
0.1400344333299265 0.05863360609603703 0
0.173469352330112 0.07464535763256402 0
0.1530923189566633 0.05666962275642658 0
0.1504325036346167 0.0818691443007103 0
0.1567689618274802 0.0439864825745056 0
0.1271210152124436 0.05228947906089135 0
0.0270577859476859 0.02640329310328094 0
0.2723131895334812 0.02558630064186449 0
0.1592777356014524 0.07037901218385806 0
POLYGONS 88 352
3 20 9 24
3 2 26 33
3 40 22 41
3 18 43 44
3 25 3 36
3 24 9 35
3 29 24 39
3 11 23 45
3 22 11 45
3 12 41 45
3 17 6 47
3 41 12 46
3 29 39 48
3 26 27 31
3 6 18 47
3 44 16 47
3 27 26 30
3 31 38 53
3 27 25 32
3 0 12 54
3 16 5 55
3 32 42 52
3 25 27 30
3 47 16 55
3 41 22 45
3 18 44 47
3 31 27 38
3 26 14 30
3 12 45 54
3 40 34 53
3 24 35 39
3 24 29 51
3 28 20 51
3 32 37 42
3 14 25 30
3 38 48 53
3 42 37 43
3 20 24 51
3 26 31 33
3 32 25 36
3 28 51 56
3 38 27 52
3 23 0 54
3 34 40 41
3 42 43 49
3 5 17 55
3 34 31 53
3 39 40 53
3 39 35 40
3 51 29 56
3 27 32 52
3 29 50 56
3 49 28 56
3 32 36 37
3 42 50 52
3 45 23 54
3 33 31 34
3 50 42 56
3 29 48 50
3 17 47 55
3 48 39 53
3 48 38 50
3 43 37 44
3 50 38 52
3 33 34 46
3 42 49 56
3 34 41 46
3 12 1 46
3 1 13 46
3 13 2 46
3 2 14 26
3 2 33 46
3 14 3 25
3 16 3 15
3 3 16 36
3 16 15 4
3 19 18 7
3 8 18 19
3 18 8 43
3 8 20 28
3 8 28 49
3 43 8 49
3 9 21 22
3 9 22 35
3 21 10 22
3 36 16 44
3 35 22 40
3 37 36 44
CELL_DATA 88
SCALARS mises double 1
LOOKUP_TABLE default
6681127.304494417 6674364.763085057 6706591.34708864 6537760.468346075 6739167.025192132 6655086.461094873 6678523.029031352 6012517.823335628 6550809.421087509 6764523.381542141 5907098.741653704 6644570.087731098 6681017.100107404 6685802.067969921 7908419.5736610005 6224792.193139852 6674422.66221284 6707592.095863625 6693842.474040721 6428285.287734971 8636784.036994787 6645058.416156603 6681620.106280321 6439763.032778044 6893022.812973021 6048675.90160829 6686861.172498083 6675505.05704242 6661403.045971421 6727069.455358499 6660397.925516089 6671379.5293372255 6673138.477522377 6550947.930912719 6680620.244049802 6698679.106969987 6574982.969835243 6670018.567869641 6658490.532109934 6737097.920651485 6669669.110855197 6690105.188818007 5956540.7062917305 6792011.980525176 6682843.844222273 7455961.025201035 6734226.694295932 6699888.504202619 6694130.824719632 6677393.311530961 6686907.177555674 6674065.014354086 6675418.088175489 6612246.58760907 6658914.105912974 6115046.342870814 6715643.163350213 6662043.122117464 6681714.476828548 4551374.87042206 6697564.967758367 6686198.473251264 6375258.810704723 6681706.378118888 6690273.4823318 6658517.64496499 6761607.583346547 6573067.918185723 6646196.073519549 6682012.279645958 6679502.357126683 6633623.72970164 6661762.9973343015 6862500.478175483 6835565.961061712 6862529.467816892 6842778.832091333 6842749.9306726195 6816120.123252623 6684693.555069236 6685494.558561299 6692750.6404392375 6574130.484580514 6576614.129095136 6574158.256174705 6574269.803699216 6611897.211354062 6435021.146745857
VECTORS principal_stress_1 float
6682344.777481346 -3025.136434423872 0.0
6671604.343837763 4437.398082588061 0.0
6667783.28323489 69529.13280832945 0.0
6681416.787803762 204664.05445053033 0.0
6711114.2167220935 -11725.027641807945 0.0
6659053.824759062 -5302.768376988771 0.0
6681150.362222386 5896.326439081577 0.0
6560988.1679840945 -131662.33688633438 0.0
6748632.791934944 -333587.52586959576 0.0
6751769.321257833 -89924.76677711657 0.0
5738729.774274232 1262823.0216744486 0.0
6619870.286113653 -72342.24251860131 0.0
6678868.606885987 8808.721548510239 0.0
6684112.067601081 -6107.311406191336 0.0
7922015.859338039 369089.13471085246 0.0
6444526.085741621 -115419.36758220279 0.0
6673596.525300718 -3569.488817034185 0.0
6693208.237274523 -1271.8197253254355 0.0
6684496.279242192 -9604.731933788506 0.0
6729545.30802573 329933.31915646006 0.0
8289279.922124749 -711014.794852623 0.0
6676963.361336675 -10437.675375133553 0.0
6681593.919938928 -3690.167394246229 0.0
6727111.753646627 -283175.94054683304 0.0
6878103.048935769 105199.29148263096 0.0
6090628.466470771 409150.0232614332 0.0
6683584.293650051 -6254.752837418007 0.0
6674726.321164465 4381.1868721284045 0.0
6772412.74856406 246479.81673616875 0.0
6698545.274352907 17849.314817424533 0.0
6655592.486817856 18496.378413683324 0.0
6673709.184101184 4731.286107339598 0.0
6675096.158958458 3044.412966461773 0.0
6574338.772357721 -11662.644319032917 0.0
6680409.9283838 4268.517075159966 0.0
6695378.940822106 513.1286647670398 0.0
6659136.641109006 57221.02525257866 0.0
6671502.7438393505 -951.1904448604954 0.0
6652011.312951675 -14359.687890858406 0.0
6746018.209942344 -54323.182008550284 0.0
6674996.171602533 4856.034002646204 0.0
6688775.479501666 -2700.2705265886475 0.0
6501048.262240954 204255.26859623267 0.0
6766000.040372155 13572.831611947853 0.0
6698809.818767545 54334.057610171745 0.0
7026768.152222264 -1182647.0081738804 0.0
6721891.407663449 20.667201448619874 0.0
6688469.951062499 17064.666246886503 0.0
6687793.190551723 25564.337333271524 0.0
6680357.6090035485 3732.952681073262 0.0
6695483.944956775 -19552.121275805668 0.0
6681937.838896296 7248.04622593487 0.0
6678677.3583197035 13305.602972435367 0.0
6687207.150035455 -101442.43800112518 0.0
6671248.479682299 756.9524964910066 0.0
6421683.471476249 -41442.8237290468 0.0
6699720.879241748 -22364.951936185524 0.0
6671324.994021801 4768.925161378756 0.0
6684593.32711632 630.5775165335531 0.0
4654765.467298493 -757049.3690108693 0.0
6687740.276113096 7118.241262340462 0.0
6681807.671511917 89.84844193228331 0.0
6445283.099512176 60680.435938210336 0.0
6690343.024359563 -12996.763691893193 0.0
6666705.654730654 -35829.9688676082 0.0
6679006.47581093 18232.91577540356 0.0
6744100.838117666 -36100.466063839565 0.0
6573388.453024947 -16053.608076005792 0.0
6637061.779284419 1804.2779555824409 0.0
6668622.641763859 10930.345191431981 0.0
6676924.94633017 3132.753751883663 0.0
6625637.043232495 -1825.5466853399685 0.0
6663360.697531856 6170.585904948656 0.0
6862535.61782221 -16470.077023676968 0.0
6881159.389717022 -122296.68963004602 0.0
6862533.861035658 -5490.0270691945525 0.0
6842783.210271182 5474.22746492667 0.0
6842784.961999718 16422.676418092702 0.0
6861303.531616575 131003.48373801641 0.0
6684668.23121311 3718.9713449743394 0.0
6680538.809659476 9023.223208482219 0.0
6685930.111418167 43450.49488044618 0.0
6574164.147797843 -15777.992681712487 0.0
6572674.839071323 11282.93778240538 0.0
6574162.464846778 -5259.336802343718 0.0
6740003.828307141 -245987.6846799049 0.0
6596515.932494825 46748.36789461535 0.0
6497864.158201491 -86012.90151457995 0.0
VECTORS principal_stress_2 float
3025.1364344248414 6682344.777481346 0.0
-4437.39808258809 6671604.343837763 0.0
-69529.13280832898 6667783.28323489 0.0
-204664.05445052977 6681416.787803762 0.0
11725.027641807632 6711114.2167220935 0.0
5302.768376989516 6659053.824759062 0.0
-5896.326439080709 6681150.362222386 0.0
131662.33688633487 6560988.1679840945 0.0
333587.5258695962 6748632.791934944 0.0
89924.76677711718 6751769.321257833 0.0
-1262823.0216744482 5738729.774274232 0.0
72342.24251860195 6619870.286113653 0.0
-8808.721548509478 6678868.606885987 0.0
6107.3114061924625 6684112.067601081 0.0
-369089.1347108527 7922015.859338039 0.0
115419.3675822036 6444526.085741621 0.0
3569.4888170351605 6673596.525300718 0.0
1271.8197253254611 6693208.237274523 0.0
9604.731933788733 6684496.279242192 0.0
-329933.3191564596 6729545.30802573 0.0
711014.7948526233 8289279.922124749 0.0
10437.675375133462 6676963.361336675 0.0
3690.167394246821 6681593.919938928 0.0
283175.9405468328 6727111.753646627 0.0
-105199.29148263017 6878103.048935769 0.0
-409150.0232614328 6090628.466470771 0.0
6254.752837418952 6683584.293650051 0.0
-4381.186872128318 6674726.321164465 0.0
-246479.81673616858 6772412.74856406 0.0
-17849.31481742448 6698545.274352907 0.0
-18496.378413683033 6655592.486817856 0.0
-4731.286107339657 6673709.184101184 0.0
-3044.412966460839 6675096.158958458 0.0
11662.644319033729 6574338.772357721 0.0
-4268.517075159507 6680409.9283838 0.0
-513.1286647666742 6695378.940822106 0.0
-57221.02525257873 6659136.641109006 0.0
951.1904448605811 6671502.7438393505 0.0
14359.687890858686 6652011.312951675 0.0
54323.18200855122 6746018.209942344 0.0
-4856.034002645857 6674996.171602533 0.0
2700.270526589767 6688775.479501666 0.0
-204255.2685962325 6501048.262240954 0.0
-13572.83161194725 6766000.040372155 0.0
-54334.05761017114 6698809.818767545 0.0
1182647.0081738802 7026768.152222264 0.0
-20.66720144767394 6721891.407663449 0.0
-17064.666246886103 6688469.951062499 0.0
-25564.337333271367 6687793.190551723 0.0
-3732.952681073015 6680357.6090035485 0.0
19552.121275806163 6695483.944956775 0.0
-7248.046225935051 6681937.838896296 0.0
-13305.602972434941 6678677.3583197035 0.0
101442.43800112569 6687207.150035455 0.0
-756.9524964911103 6671248.479682299 0.0
41442.8237290472 6421683.471476249 0.0
22364.95193618561 6699720.879241748 0.0
-4768.925161378181 6671324.994021801 0.0
-630.5775165328017 6684593.32711632 0.0
757049.3690108694 4654765.467298493 0.0
-7118.241262340144 6687740.276113096 0.0
-89.84844193220614 6681807.671511917 0.0
-60680.43593821002 6445283.099512176 0.0
12996.763691893571 6690343.024359563 0.0
35829.96886760836 6666705.654730654 0.0
-18232.91577540277 6679006.47581093 0.0
36100.466063840155 6744100.838117666 0.0
16053.608076005752 6573388.453024947 0.0
-1804.2779555816899 6637061.779284419 0.0
-10930.345191432125 6668622.641763859 0.0
-3132.7537518834915 6676924.94633017 0.0
1825.54668534021 6625637.043232495 0.0
-6170.585904947791 6663360.697531856 0.0
16470.077023677237 6862535.61782221 0.0
122296.68963004636 6881159.389717022 0.0
5490.027069194376 6862533.861035658 0.0
-5474.227464925723 6842783.210271182 0.0
-16422.676418092287 6842784.961999718 0.0
-131003.48373801602 6861303.531616575 0.0
-3718.9713449732576 6684668.23121311 0.0
-9023.223208481135 6680538.809659476 0.0
-43450.49488044513 6685930.111418167 0.0
15777.992681713322 6574164.147797843 0.0
-11282.937782405508 6572674.839071323 0.0
5259.3368023444955 6574162.464846778 0.0
245987.68467990594 6740003.828307141 0.0
-46748.367894614435 6596515.932494825 0.0
86012.90151458075 6497864.158201491 0.0
POINT_DATA 57
VECTORS displacements float
0.0 0.0 0.0
3.9569899014077606e-05 3.0650225943454597e-06 0.0
3.9570450909256265e-05 3.0585175851835827e-06 0.0
5.5604915509491335e-05 2.865202154050736e-06 0.0
5.560340749686646e-05 2.8718006501267896e-06 0.0
0.00010145707226322663 5.304644405539459e-06 0.0
0.00010016889087032898 -4.670425923188065e-06 0.0
5.583536979910435e-05 -3.4491127674065063e-06 0.0
5.5836207491948636e-05 -3.4425332620697636e-06 0.0
3.977066063542723e-05 -3.4205254743816535e-06 0.0
3.9770530626662056e-05 -3.4268466942263964e-06 0.0
0.0 0.0 0.0
1.9818551481912368e-05 3.2546973988225584e-06 0.0
3.9570131986982476e-05 3.0617878734770405e-06 0.0
4.759683899439243e-05 2.964358621914366e-06 0.0
5.560419317635526e-05 2.8685013666239514e-06 0.0
7.622399280572609e-05 1.850109757087085e-06 0.0
9.083986227001479e-05 -4.5626026637343094e-07 0.0
7.639660818258196e-05 -2.846599630505657e-06 0.0
5.583582022761646e-05 -3.445822978831226e-06 0.0
4.7801739021777454e-05 -3.430909820330277e-06 0.0
3.977056528889342e-05 -3.4236860462086114e-06 0.0
2.0016445482617107e-05 -3.432246529576582e-06 0.0
0.0 0.0 0.0
4.376739958045575e-05 -2.384838873856121e-06 0.0
5.167683702350852e-05 1.8768920931094155e-06 0.0
4.365067709017906e-05 1.9649175861577346e-06 0.0
4.770280118556652e-05 1.0645661583707275e-06 0.0
5.1837756247338296e-05 -2.467619506682145e-06 0.0
4.637656892360153e-05 -1.5010041974022583e-06 0.0
4.765919477795412e-05 1.9677022012201376e-06 0.0
4.215700720341651e-05 8.387645544433155e-07 0.0
5.318151306088719e-05 7.134478451057472e-07 0.0
3.868726657606407e-05 1.6089534840791474e-06 0.0
3.590023610186753e-05 3.839389745755363e-07 0.0
3.712405388683772e-05 -2.3902011432918312e-06 0.0
6.062594114444477e-05 1.2191753517566179e-06 0.0
5.919447071875521e-05 7.884479543307766e-09 0.0
4.559469603295457e-05 8.232659029835906e-08 0.0
4.11699042207511e-05 -1.4308796559641354e-06 0.0
3.37284394274835e-05 -1.2354343159700218e-06 0.0
2.5505622820004877e-05 3.3178581142984705e-08 0.0
5.43141700969631e-05 -5.548315443016001e-07 0.0
6.155375047701579e-05 -1.3869334211242462e-06 0.0
6.870041614960187e-05 -3.350211711501984e-07 0.0
1.3613891955452066e-05 -5.46612459318854e-07 0.0
3.412889878315722e-05 2.099260708746294e-06 0.0
8.047549956632093e-05 -2.8592168097260576e-07 0.0
4.456244888755553e-05 -7.796451758407625e-07 0.0
5.531971070457996e-05 -1.8083397813314397e-06 0.0
4.875515466567124e-05 -6.732477673462883e-07 0.0
4.7931909703889345e-05 -2.2770735192958334e-06 0.0
4.9918709949390074e-05 1.2128083380323509e-07 0.0
4.0393827822375784e-05 -3.4745915497934385e-07 0.0
8.11623518001113e-06 5.10509018007883e-07 0.0
8.657526458470902e-05 8.558779451301133e-07 0.0
5.076076551499396e-05 -1.54731470747092e-06 0.0