# vtk DataFile Version 2.0
Really cool data
ASCII
DATASET POLYDATA
POINTS 60 float
0.0 0.0 0
0.125 0.0 0
0.125 0.01006 0
0.175 0.01006 0
0.175 0.0 0
0.3 0.0 0
0.3 0.1 0
0.175 0.1 0
0.175 0.08994 0
0.125 0.08994 0
0.125 0.1 0
0.0 0.1 0
0.06250000013078053 0.0 0
0.125 0.005030000013686835 0
0.1500000000542101 0.01006 0
0.175 0.005029999986558172 0
0.2375000000379471 0.0 0
0.3 0.05000000007786663 0
0.2374999999024218 0.09999999999999999 0
0.175 0.09496999993765838 0
0.1499999998970008 0.08994 0
0.125 0.09496999997018445 0
0.06249999984482352 0.1 0
0.0 0.05000000007786663 0
0.1368846711881403 0.07364251799157696 0
0.1157376554313057 0.06944011712165865 0
0.1291338851660699 0.05855389729175196 0
0.1444821207314415 0.05917227166264642 0
0.162500000027105 0.02629797628574772 0
0.1379559972586447 0.04409449182498912 0
0.121939101571935 0.04146105357725718 0
0.1636507024174537 0.07650455577929954 0
0.1299949645904707 0.02843517669487083 0
0.112353832066366 0.03009699078882066 0
0.1027372672726214 0.05038933454731494 0
0.155104702934307 0.04558911168192589 0
0.1458024868195486 0.03019618506627729 0
0.1712312398778034 0.04081103218044283 0
0.1678681901778606 0.05373409429317762 0
0.1821621788789261 0.05459613642520259 0
0.1506282626348734 0.07253860259527813 0
0.1376993628660574 0.01968784044028703 0
0.03411115625600407 0.02678956251305932 0
0.03447805686378776 0.0658070178444136 0
0.1034050235086371 0.0795096805680104 0
0.265264665774236 0.06783083225978015 0
0.2316392803743332 0.05989427232359216 0
0.2622688702986651 0.03486733787604981 0
0.2184254720588419 0.03430080122622357 0
0.1902036957140246 0.03828510249517 0
0.1774163979933009 0.02689222099167952 0
0.2039776383037264 0.05635053392963583 0
0.186994685163011 0.07336097564617171 0
0.1916746896461055 0.01655214697296177 0
0.1729751188959991 0.06658164336094684 0
0.1746551266191159 0.07659679369660452 0
0.201685267290582 0.08076263030617635 0
0.09432031221718516 0.02177427502497458 0
0.1581238189403308 0.06343366754286767 0
0.07192530266050984 0.0573783117496288 0
POLYGONS 94 376
3 52 8 55
3 30 26 34
3 20 9 24
3 12 1 57
3 35 28 37
3 28 3 50
3 24 9 25
3 2 32 33
3 28 35 36
3 35 38 58
3 47 46 48
3 35 37 38
3 29 32 36
3 32 2 41
3 34 25 44
3 14 28 36
3 27 26 29
3 27 35 58
3 35 29 36
3 27 29 35
3 29 30 32
3 24 25 26
3 24 26 27
3 49 48 51
3 16 5 47
3 39 52 54
3 37 28 50
3 6 18 45
3 0 12 42
3 31 20 40
3 39 51 52
3 22 11 43
3 38 54 58
3 54 31 58
3 16 47 48
3 29 26 30
3 5 17 47
3 38 37 39
3 42 57 59
3 50 3 53
3 11 23 43
3 48 46 51
3 14 36 41
3 39 49 51
3 20 24 40
3 48 49 53
3 36 32 41
3 49 50 53
3 32 30 33
3 24 27 40
3 45 46 47
3 46 18 56
3 38 39 54
3 23 0 42
3 17 6 45
3 42 12 57
3 45 18 46
3 49 37 50
3 39 37 49
3 31 54 55
3 44 22 59
3 54 52 55
3 34 44 59
3 52 51 56
3 17 45 47
3 33 30 34
3 22 43 59
3 43 42 59
3 31 40 58
3 23 42 43
3 33 34 57
3 40 27 58
3 57 34 59
3 51 46 56
3 2 14 41
3 18 7 56
3 16 48 53
3 1 13 57
3 13 2 57
3 2 33 57
3 14 3 28
3 3 15 53
3 15 4 53
3 4 16 53
3 7 19 56
3 19 8 52
3 8 20 31
3 8 31 55
3 9 21 44
3 25 9 44
3 21 10 44
3 10 22 44
3 19 52 56
3 26 25 34
CELL_DATA 94
SCALARS mises double 1
LOOKUP_TABLE default
7609160.277788727 7317108.910993104 9705727.27459415 5583605.739782228 7272117.291880979 7900172.995931263 7866126.592176932 7633335.651617438 7965262.085251427 7221588.732220886 6255733.839398953 7419503.906872834 7617285.0764989 9031523.660106579 7722507.649024217 8148657.253445281 7336033.386297025 7405621.704503213 7291622.370317945 7285467.921643113 7258106.174486885 7417972.21713931 7342731.636930881 7036801.274423376 8290470.128219735 7517279.54546269 7786510.725627665 8438467.02294944 6531037.834038539 8361078.142159361 7197968.49848838 6489413.347115062 7529060.8731301455 7407807.001289732 6290606.829494721 7400942.313230905 6488729.660590978 7275053.602996929 6880090.423401685 6837100.204806342 6010288.365146359 6835513.362078112 8906526.615135785 7264255.855229974 8183242.7565456815 6851721.398160052 7553100.3577896 7628852.111041107 7384467.858786476 8060920.821140012 6111025.502163668 6394034.3204680765 7247356.394955215 5982732.871562408 6777544.906891801 6906166.3825954925 6144445.737145783 7269945.68448471 7379912.775167793 8052595.001395533 6601576.036473728 7119922.312513849 7190776.70096724 7336849.492594338 4247417.881617221 7659841.663751086 6897012.931684864 6644441.052199813 8088908.716002576 6176713.317840193 7422730.663026342 7515331.721923696 7446621.723389035 6723129.466154963 9972489.350916864 5846670.159761473 6341571.647761404 5738102.360407202 7625624.788184476 6491855.866291958 9730144.899650622 8286668.834790462 4866905.974672485 5867891.413558335 5639814.749063127 8520078.0601557 10029874.69431462 8113209.055785934 8151601.108672596 6536408.024458056 5379457.339271874 5571186.532320178 6479595.3967740955 7638596.9355460275
VECTORS principal_stress_1 float
7739862.215149056 1093158.9166302532 0.0
7440659.337339559 46110.871532730765 0.0
9863749.95442557 -463229.4013966372 0.0
5687055.167741944 477544.19909129624 0.0
7617033.70962084 -153060.2611061276 0.0
8129924.779375763 -874304.5770825952 0.0
8048366.808313569 -830536.471699957 0.0
7759430.609747758 890000.6802762344 0.0
8339767.27216937 -123577.22669932125 0.0
7589010.554428421 53493.1904654194 0.0
6325076.636298746 -71840.33318183613 0.0
7703803.782929771 5845.285406618968 0.0
7927985.143834607 65229.662072221625 0.0
9275018.779601557 771378.8766284924 0.0
7627962.809640908 -156389.51415557522 0.0
8275006.537706059 -84813.65244576053 0.0
7646936.017323499 87383.15655859785 0.0
7793545.4041408105 19875.476002060823 0.0
7611564.21068962 53393.87304243559 0.0
7650361.577116631 -43589.82442844929 0.0
7536528.771950611 147629.67730941527 0.0
7653404.972052784 1584.263184198619 0.0
7693806.457522554 -221670.8114009907 0.0
7038247.127734192 -16329.898278329534 0.0
8129785.303328902 -536026.7762755499 0.0
7625546.669237796 102993.05521887455 0.0
8041785.25158715 -57004.262427745016 0.0
8220047.1126684025 587981.1399489722 0.0
6780960.911857553 333274.6595315489 0.0
8538918.703377696 58709.89460344992 0.0
7217202.831051777 323962.9692860176 0.0
6730846.04989248 -417341.7720397264 0.0
7812404.165331652 61712.50339497756 0.0
7774845.7084172685 214216.40137250605 0.0
6337243.701410351 -459671.4659632272 0.0
7594249.572624037 -98933.56115200922 0.0
6177473.551469106 -1296264.8512489817 0.0
7519479.52812435 -106129.29808839282 0.0
6760993.6120564565 158640.86505117026 0.0
6974168.604346466 -850828.1720479926 0.0
6559865.707934273 -214201.56474307697 0.0
6855196.175328258 -21863.764797534095 0.0
9150340.441738576 146021.73769024535 0.0
7305813.977593176 -111448.17549650391 0.0
8336002.492631001 -106461.43554051402 0.0
6855711.527239124 -599783.514611008 0.0
7828571.715619117 425289.32174291665 0.0
7716648.846639744 -447044.7636509864 0.0
7523876.403348353 -56445.13788711151 0.0
8406566.460161163 -185928.42592188122 0.0
6431315.179528474 122991.58850879464 0.0
6494674.090546768 356083.21675197897 0.0
7469970.824219692 195482.9839579477 0.0
6532132.638412022 309990.3115578892 0.0
6409596.836505872 1284152.0465841335 0.0
6691336.512610134 -4339.531376055741 0.0
6221665.645224249 355233.0734102698 0.0
7388085.335172572 -342262.15529223875 0.0
7500000.39240176 29792.983717024574 0.0
8299711.185429713 264170.35365378513 0.0
6465928.851664573 26402.14640031349 0.0
7260498.560873539 422118.1926046392 0.0
7040865.753136388 -259111.17811303085 0.0
7388544.733300706 402472.90173961915 0.0
4390957.195513343 162146.06395552043 0.0
7561615.335761449 137157.96583634254 0.0
6759383.930516536 -61999.61502606713 0.0
6877029.289442424 -63445.55047734504 0.0
8441016.718649365 272280.6622748812 0.0
6361332.267359113 8615.201323638186 0.0
7270021.734829162 47272.73879429818 0.0
7775115.165406691 979.7650178554583 0.0
7256709.826772331 140252.17991795126 0.0
6716076.067202976 421404.1942704553 0.0
10017742.260550775 445986.5517205634 0.0
6032047.478802209 730791.9754391377 0.0
6422130.32463016 -401963.48890604253 0.0
5711192.132076179 425159.4112318934 0.0
7593027.530086112 1530772.5538387522 0.0
6568970.638931403 686227.8887282165 0.0
9911005.779231023 -487381.67632541136 0.0
8192611.173395905 -1776244.7671828512 0.0
4796456.883145131 -288926.8622641375 0.0
6069016.442889299 -890970.2937955995 0.0
5595076.612203144 399863.1736282014 0.0
8406676.32180326 945016.9413056576 0.0
10144922.335134441 556483.7067697315 0.0
8286243.443039778 1040458.3128503741 0.0
8076467.849858851 -1550569.4756014545 0.0
6582707.820700078 -579540.9393724246 0.0
5365130.914902227 -406141.8692821872 0.0
5686970.36191741 -609037.4310361445 0.0
6586157.720241657 1084518.558647272 0.0
7573967.100158762 -179838.69955079674 0.0
VECTORS principal_stress_2 float
-1093158.9166302532 7739862.215149056 0.0
-46110.87153273061 7440659.337339559 0.0
463229.40139663784 9863749.95442557 0.0
-477544.1990912966 5687055.167741944 0.0
153060.26110612834 7617033.70962084 0.0
874304.5770825961 8129924.779375763 0.0
830536.4716999567 8048366.808313569 0.0
-890000.6802762336 7759430.609747758 0.0
123577.22669932223 8339767.27216937 0.0
-53493.19046541907 7589010.554428421 0.0
71840.3331818361 6325076.636298746 0.0
-5845.285406617982 7703803.782929771 0.0
-65229.66207222138 7927985.143834607 0.0
-771378.8766284913 9275018.779601557 0.0
156389.5141555764 7627962.809640908 0.0
84813.65244576163 8275006.537706059 0.0
-87383.15655859755 7646936.017323499 0.0
-19875.476002060026 7793545.4041408105 0.0
-53393.87304243541 7611564.21068962 0.0
43589.82442845036 7650361.577116631 0.0
-147629.6773094155 7536528.771950611 0.0
-1584.2631841988546 7653404.972052784 0.0
221670.81140099055 7693806.457522554 0.0
16329.898278329369 7038247.127734192 0.0
536026.7762755504 8129785.303328902 0.0
-102993.05521887483 7625546.669237796 0.0
57004.26242774569 8041785.25158715 0.0
-587981.1399489719 8220047.1126684025 0.0
-333274.65953154914 6780960.911857553 0.0
-58709.89460345009 8538918.703377696 0.0
-323962.9692860176 7217202.831051777 0.0
417341.77203972614 6730846.04989248 0.0
-61712.503394976586 7812404.165331652 0.0
-214216.40137250558 7774845.7084172685 0.0
459671.4659632277 6337243.701410351 0.0
98933.56115200922 7594249.572624037 0.0
1296264.8512489821 6177473.551469106 0.0
106129.29808839262 7519479.52812435 0.0
-158640.86505117003 6760993.6120564565 0.0
850828.1720479933 6974168.604346465 0.0
214201.56474307738 6559865.707934273 0.0
21863.764797534517 6855196.175328258 0.0
-146021.73769024512 9150340.441738576 0.0
111448.17549650499 7305813.977593176 0.0
106461.4355405146 8336002.492631001 0.0
599783.514611008 6855711.527239124 0.0
-425289.321742917 7828571.715619117 0.0
447044.76365098613 7716648.846639744 0.0
56445.13788711247 7523876.403348353 0.0
185928.4259218816 8406566.460161163 0.0
-122991.5885087942 6431315.179528474 0.0
-356083.216751979 6494674.090546768 0.0
-195482.9839579476 7469970.824219692 0.0
-309990.3115578885 6532132.638412022 0.0
-1284152.0465841326 6409596.836505872 0.0
4339.531376055654 6691336.512610134 0.0
-355233.07341026916 6221665.645224249 0.0
342262.1552922398 7388085.335172572 0.0
-29792.983717023923 7500000.39240176 0.0
-264170.3536537849 8299711.185429713 0.0
-26402.146400313653 6465928.851664573 0.0
-422118.192604639 7260498.560873539 0.0
259111.17811303106 7040865.753136388 0.0
-402472.9017396181 7388544.733300706 0.0
-162146.0639555199 4390957.195513343 0.0
-137157.9658363422 7561615.335761449 0.0
61999.61502606788 6759383.930516535 0.0
63445.550477345765 6877029.289442424 0.0
-272280.66227488004 8441016.718649365 0.0
-8615.201323637652 6361332.267359113 0.0
-47272.73879429779 7270021.734829162 0.0
-979.7650178551401 7775115.165406691 0.0
-140252.17991795088 7256709.826772331 0.0
-421404.1942704555 6716076.067202976 0.0
-445986.55172056257 10017742.260550775 0.0
-730791.9754391371 6032047.478802209 0.0
401963.4889060426 6422130.32463016 0.0
-425159.4112318934 5711192.132076179 0.0
-1530772.553838751 7593027.530086113 0.0
-686227.8887282166 6568970.638931403 0.0
487381.67632541194 9911005.779231023 0.0
1776244.7671828524 8192611.173395905 0.0
288926.8622641373 4796456.883145131 0.0
890970.2937956005 6069016.442889299 0.0
-399863.1736282015 5595076.612203144 0.0
-945016.941305657 8406676.32180326 0.0
-556483.7067697311 10144922.335134441 0.0
-1040458.3128503741 8286243.443039778 0.0
1550569.4756014557 8076467.84985885 0.0
579540.9393724253 6582707.820700078 0.0
406141.8692821876 5365130.914902227 0.0
609037.4310361452 5686970.36191741 0.0
-1084518.5586472708 6586157.720241658 0.0
179838.69955079778 7573967.100158762 0.0
POINT_DATA 60
VECTORS displacements float
0.0 0.0 0.0
3.697158344313434e-05 3.3324105144296027e-06 0.0
3.842514350741337e-05 2.579456868716898e-06 0.0
6.225177603367323e-05 2.5132450632844506e-06 0.0
6.382936577153546e-05 3.3171219819855554e-06 0.0
0.00010628777378395443 5.866893223279187e-06 0.0
0.00010611186818380928 -4.516109260687863e-06 0.0
6.338162697238213e-05 -2.8892030241326845e-06 0.0
6.22583186769367e-05 -2.1064900367612407e-06 0.0
3.836115602216891e-05 -2.241483754109849e-06 0.0
3.678869464060249e-05 -3.011964065029431e-06 0.0
0.0 0.0 0.0
2.004409580316394e-05 3.7692668600386994e-06 0.0
3.7303180608421236e-05 3.0362605612219743e-06 0.0
5.043677589585696e-05 2.291730283145593e-06 0.0
6.361194698473223e-05 3.0479197777525673e-06 0.0
8.170758905762413e-05 3.258294403119817e-06 0.0
9.574929751327112e-05 8.32985190424417e-07 0.0
8.120366733049027e-05 -2.0836112283004116e-06 0.0
6.315026941232417e-05 -2.5908813173170524e-06 0.0
5.013156610815192e-05 -1.878914868437756e-06 0.0
3.712952534055359e-05 -2.738780434938697e-06 0.0
1.9898088842458657e-05 -3.786812406536584e-06 0.0
0.0 0.0 0.0
4.5038338338593075e-05 -7.621457447633001e-07 0.0
3.750655480154831e-05 -1.3039617179082076e-06 0.0
4.275657183502762e-05 -2.866043175058748e-07 0.0
4.8298784035126506e-05 -1.270295434845073e-07 0.0
5.531826211555439e-05 1.1290397603627435e-06 0.0
4.59846411273781e-05 4.1968108896445213e-07 0.0
4.020660721669487e-05 6.884373762189736e-07 0.0
5.578415796718451e-05 -8.261190941909848e-07 0.0
4.275056601621256e-05 1.18563521860671e-06 0.0
3.6462508040835445e-05 1.6698179012210675e-06 0.0
3.338132164404279e-05 5.2799715587708346e-08 0.0
5.2157306628913364e-05 3.3083944285874477e-07 0.0
4.870267125982255e-05 9.6363582705673e-07 0.0
5.8071840712117e-05 6.757814363612453e-07 0.0
5.674957171714051e-05 6.770510745433343e-08 0.0
6.183760429757918e-05 -3.764333274322105e-11 0.0
5.051287376254885e-05 -7.489870789545988e-07 0.0
4.512996872645529e-05 1.5397983885193614e-06 0.0
1.0276951415713389e-05 9.776121700437317e-07 0.0
1.0435333883300449e-05 -6.822245518436264e-07 0.0
3.2610935682800115e-05 -2.3362125429642455e-06 0.0
8.87052839365286e-05 8.985160510319155e-08 0.0
7.852148777063545e-05 -5.077721131612438e-08 0.0
8.773972930829471e-05 9.88037294029103e-07 0.0
7.446611089255668e-05 1.4687217568912292e-06 0.0
6.489534542006117e-05 1.0972484799451427e-06 0.0
6.098437750964217e-05 1.59982860705989e-06 0.0
6.945618152271699e-05 -7.288672259210848e-08 0.0
6.417118560384502e-05 -1.2688891129486891e-06 0.0
6.697658839089634e-05 2.5770586629910303e-06 0.0
5.8854779270241003e-05 -5.778133971823063e-07 0.0
6.012474990222683e-05 -1.184507549534358e-06 0.0
6.968592778194637e-05 -1.715442790433435e-06 0.0
2.9982034080802852e-05 2.5411443996601926e-06 0.0
5.3309769664667104e-05 -2.796307347326037e-07 0.0
2.2630380662499425e-05 -6.160670009662787e-07 0.0