# vtk DataFile Version 2.0
Really cool data
ASCII
DATASET POLYDATA
POINTS 50 float
0.0 0.0 0
0.125 0.0 0
0.125 0.025 0
0.175 0.025 0
0.175 0.0 0
0.3 0.0 0
0.3 0.1 0
0.175 0.1 0
0.175 0.07500000000000001 0
0.125 0.07500000000000001 0
0.125 0.1 0
0.0 0.1 0
0.06250000013078053 0.0 0
0.125 0.01250000001946666 0
0.1500000000542101 0.025 0
0.175 0.01249999996954492 0
0.2375000000379471 0.0 0
0.3 0.05000000007786663 0
0.2374999999024218 0.09999999999999999 0
0.175 0.08749999992410586 0
0.1499999998970008 0.07500000000000002 0
0.125 0.08749999998373698 0
0.06249999984482352 0.1 0
0.0 0.05000000007786663 0
0.1368030376589693 0.05881183609165548 0
0.117775623603241 0.06013038045187373 0
0.162500000027105 0.041237976310672 0
0.107309198575727 0.08007003580073291 0
0.19212308841714 0.01780898906300205 0
0.1901864428630649 0.07906464689515667 0
0.1094436020031466 0.01874551931480652 0
0.1291338851563814 0.04361389724778988 0
0.1114151539582876 0.04074826126195277 0
0.1624999999485004 0.06043297861285827 0
0.1787552186679302 0.06017424107710374 0
0.1459442698801169 0.044214050543324 0
0.08315066519904095 0.03531547250623295 0
0.08792340551106274 0.06122065477279754 0
0.04632429568687593 0.05307658962797577 0
0.172304892364689 0.04902546201312089 0
0.1850949657786914 0.04563198790008897 0
0.1965712954394372 0.05628532213281995 0
0.2087061817377232 0.03693437174515411 0
0.253205755539793 0.04383466385996593 0
0.2266612590318197 0.06518650077867166 0
0.1762118450318149 0.03854480335931212 0
0.1861593669885893 0.03182859057267874 0
0.02720607395441411 0.0257691474264606 0
0.1502126267551182 0.05641628411908355 0
0.2685302890076256 0.07336950662279432 0
POLYGONS 74 296
3 5 17 43
3 8 20 33
3 28 16 42
3 2 31 32
3 20 9 24
3 30 2 32
3 18 29 44
3 25 27 37
3 24 9 25
3 16 5 43
3 8 33 34
3 27 22 37
3 12 36 38
3 42 43 44
3 33 26 39
3 26 33 48
3 35 26 48
3 11 23 38
3 22 11 38
3 14 26 35
3 44 43 49
3 32 25 37
3 42 16 43
3 6 18 49
3 29 34 41
3 24 31 35
3 24 25 31
3 12 38 47
3 0 12 47
3 7 19 29
3 1 13 30
3 21 10 27
3 15 4 28
3 18 44 49
3 31 25 32
3 28 42 46
3 37 22 38
3 30 32 36
3 43 17 49
3 20 24 48
3 34 33 39
3 33 20 48
3 17 6 49
3 23 0 47
3 39 26 45
3 24 35 48
3 34 39 40
3 40 39 45
3 38 23 47
3 3 15 28
3 9 21 27
3 13 2 30
3 19 8 29
3 41 42 44
3 36 32 37
3 45 3 46
3 42 40 46
3 34 40 41
3 41 40 42
3 40 45 46
3 3 28 46
3 4 16 28
3 10 22 27
3 12 1 30
3 2 14 31
3 14 3 26
3 26 3 45
3 18 7 29
3 29 8 34
3 25 9 27
3 12 30 36
3 31 14 35
3 29 41 44
3 36 37 38
CELL_DATA 74
SCALARS mises double 1
LOOKUP_TABLE default
1178894.186081435 3062434.1137505015 1068519.7802808955 1909035.1947439474 3005914.6550967726 1879018.681579881 1211086.0732303124 1770855.6273515278 2075659.1462429026 1562183.5114665513 2210940.1480898997 1150892.31484283 1474314.3277784428 1361770.80498097 2054974.4749609986 2370924.5860790797 2396490.605770678 1219512.6465287684 1336159.830915692 2434901.5431180014 1337632.4724590443 1810605.469750754 1410213.8392216673 1707777.5167159992 1980484.102567626 2294920.3575004213 2148090.7834767364 1380521.163352648 1280953.682590491 417160.3610370855 446757.525663787 502523.4638066544 541376.5933816918 1346287.9352480925 2087734.8364739101 1727207.9581158797 1499085.6697073553 1589251.7645447503 1001785.7016412731 2526330.230003305 2198604.5801106417 2483219.3898518533 1452944.805120451 1166912.5808188696 2277902.1171976994 2499534.4396383883 2072096.7218580483 1908548.7912117448 1250251.6404373252 1072915.9458467911 1247064.501087746 1167290.4938920904 1395360.9480188314 1706351.8243504593 1822613.1655978202 1712485.36547612 1614270.6606418083 1785126.6041544778 1893078.5081491051 2074276.8037940117 1741498.1214732546 856053.572480053 792769.3951011766 795027.2713150795 2875177.610217313 3031881.332871788 2101804.123941878 853760.4398792585 1767594.5226748383 1724999.1651199234 1138844.6385474412 2325926.6604083385 1416244.1290709996 1544607.3969539101
VECTORS principal_stress_1 float
1146289.4294605972 -253806.1925976918 0.0
3187511.586023849 296063.50238119706 0.0
1073926.3151334662 -170650.42358390955 0.0
2017292.4437656072 364001.7798881487 0.0
3137801.510226243 -300925.5405884381 0.0
1932028.66943782 283647.7085488818 0.0
1202555.097182626 97820.83829518422 0.0
1807458.9803306945 -344437.01861609 0.0
2257688.357646238 -470478.8209795245 0.0
1524640.3499186242 -117724.25309253354 0.0
2406272.0696230666 501877.6824689064 0.0
1102103.7628904134 -75730.59039140158 0.0
1424715.1103153091 25076.895777027603 0.0
1306168.7542419482 14698.39687257212 0.0
2234851.746159704 26946.181081008537 0.0
2579891.3979814565 57645.67639567558 0.0
2521872.490198632 -74988.43727758147 0.0
1330725.621637312 -23839.03232102487 0.0
1337170.0278840947 -110353.63451671223 0.0
2507379.0972028235 -55698.76302928407 0.0
1362862.7702619943 78525.75493180266 0.0
1805144.725805772 44738.963269740314 0.0
1374858.4777412466 -129856.38599839377 0.0
1628651.899405196 150593.05750379854 0.0
2044200.458283883 349702.622714109 0.0
2467827.2291376158 9026.766864314595 0.0
2302486.753308973 61137.70797064551 0.0
1349771.8122923425 76058.60217296178 0.0
1319240.2097404648 95070.72914671549 0.0
321435.5984722453 32281.169499892963 0.0
337847.8947660839 11900.60895327204 0.0
427835.6870752856 -39983.877012877965 0.0
419789.74248540646 -10062.553024416062 0.0
1347254.6662361198 92840.20518521733 0.0
2152607.1911923178 -99232.78366503306 0.0
1801069.6390250954 -397695.7514698986 0.0
1459661.908487026 -16668.731575394377 0.0
1623792.0103743076 356719.88397447916 0.0
1002359.7063947432 143714.1373937716 0.0
2583537.549408435 -90634.75158542849 0.0
2346020.5780596966 14110.987214772054 0.0
2537086.806112831 56948.19416212234 0.0
1375670.81414652 250672.90180610598 0.0
1274127.8475283522 62402.83479520637 0.0
2434494.9559111656 -61950.665887277704 0.0
2623171.7996621844 -58279.29226333965 0.0
2178983.543464253 110095.75739409318 0.0
2020954.8550982277 -172214.46189469149 0.0
1290560.3786882085 10387.829011005064 0.0
1485513.7222394666 -915347.4015053675 0.0
1606772.2156768679 -890422.948109509 0.0
1562615.403788631 919230.5859191989 0.0
1701391.8885740526 851209.4673187432 0.0
1644341.460232804 -20110.647520727984 0.0
1739129.395757065 -18654.267690361754 0.0
1873822.883926099 -420071.7836386074 0.0
1664961.5579722645 -206720.17090916343 0.0
1840382.3891309851 -1220.6001286746953 0.0
1863281.531681557 41295.23279978536 0.0
2166957.97234547 -221402.30115680408 0.0
1834015.0312540676 -345712.89625504334 0.0
986690.3965591186 -360132.13522048696 0.0
913272.1544183814 -335386.91290566 0.0
915492.6321462992 336399.8970313872 0.0
3042309.950396546 391366.0398134949 0.0
3180540.524764998 -289106.56833204476 0.0
2303258.9025597144 -484991.6103637111 0.0
993385.7833858426 387215.24665843294 0.0
1876331.1097628933 313127.8803081522 0.0
1808188.292600044 -264038.8002717767 0.0
1091205.055055308 54392.2411768393 0.0
2425060.0016124477 95642.4974653433 0.0
1443703.073366426 311138.7507296529 0.0
1418245.3402526877 15342.489335238868 0.0
VECTORS principal_stress_2 float
253806.1925976918 1146289.4294605972 0.0
-296063.5023811971 3187511.586023849 0.0
170650.42358390958 1073926.3151334662 0.0
-364001.7798881486 2017292.4437656072 0.0
300925.54058843834 3137801.510226243 0.0
-283647.7085488818 1932028.66943782 0.0
-97820.83829518416 1202555.097182626 0.0
344437.0186160902 1807458.9803306942 0.0
470478.8209795246 2257688.357646238 0.0
117724.25309253349 1524640.3499186242 0.0
-501877.68246890634 2406272.0696230666 0.0
75730.59039140161 1102103.7628904134 0.0
-25076.8957770275 1424715.1103153091 0.0
-14698.39687257205 1306168.7542419482 0.0
-26946.181081008493 2234851.746159704 0.0
-57645.676395675524 2579891.3979814565 0.0
74988.43727758146 2521872.490198632 0.0
23839.03232102496 1330725.621637312 0.0
110353.63451671237 1337170.0278840947 0.0
55698.76302928411 2507379.0972028235 0.0
-78525.75493180267 1362862.7702619943 0.0
-44738.963269740016 1805144.725805772 0.0
129856.38599839377 1374858.4777412466 0.0
-150593.05750379866 1628651.899405196 0.0
-349702.62271410914 2044200.458283883 0.0
-9026.766864314304 2467827.2291376158 0.0
-61137.7079706452 2302486.753308973 0.0
-76058.6021729617 1349771.8122923425 0.0
-95070.72914671543 1319240.2097404648 0.0
-32281.169499892978 321435.5984722453 0.0
-11900.608953271987 337847.8947660839 0.0
39983.87701287803 427835.6870752856 0.0
10062.55302441613 419789.74248540646 0.0
-92840.20518521739 1347254.6662361198 0.0
99232.7836650331 2152607.1911923178 0.0
397695.7514698987 1801069.6390250954 0.0
16668.731575394533 1459661.908487026 0.0
-356719.8839744792 1623792.0103743076 0.0
-143714.13739377158 1002359.7063947432 0.0
90634.7515854286 2583537.549408435 0.0
-14110.987214771814 2346020.5780596966 0.0
-56948.19416212201 2537086.806112831 0.0
-250672.90180610592 1375670.81414652 0.0
-62402.83479520632 1274127.8475283522 0.0
61950.66588727772 2434494.9559111656 0.0
58279.29226333966 2623171.7996621844 0.0
-110095.75739409286 2178983.543464253 0.0
172214.4618946916 2020954.8550982277 0.0
-10387.829011005046 1290560.3786882085 0.0
915347.4015053677 1485513.7222394664 0.0
890422.9481095091 1606772.2156768679 0.0
-919230.5859191985 1562615.4037886313 0.0
-851209.4673187429 1701391.8885740528 0.0
20110.647520728016 1644341.460232804 0.0
18654.267690361798 1739129.395757065 0.0
420071.78363860765 1873822.8839260987 0.0
206720.1709091635 1664961.5579722645 0.0
1220.6001286747962 1840382.3891309851 0.0
-41295.23279978529 1863281.531681557 0.0
221402.3011568043 2166957.97234547 0.0
345712.8962550435 1834015.0312540676 0.0
360132.13522048696 986690.3965591186 0.0
335386.9129056601 913272.1544183813 0.0
-336399.89703138714 915492.6321462992 0.0
-391366.0398134947 3042309.950396546 0.0
289106.56833204464 3180540.524764998 0.0
484991.610363711 2303258.9025597144 0.0
-387215.24665843294 993385.7833858426 0.0
-313127.8803081519 1876331.1097628935 0.0
264038.80027177685 1808188.292600044 0.0
-54392.24117683913 1091205.055055308 0.0
-95642.49746534291 2425060.001612448 0.0
-311138.7507296529 1443703.073366426 0.0
-15342.48933523881 1418245.3402526877 0.0
POINT_DATA 50
VECTORS displacements float
0.0 0.0 0.0
6.412106256756394e-06 2.9957154573024354e-07 0.0
8.312848075660926e-06 1.4198629013496785e-07 0.0
1.5606182351352787e-05 -1.1463174627164231e-07 0.0
1.7410493792964493e-05 5.9587865851848506e-08 0.0
2.4722669704792857e-05 1.793056956674964e-07 0.0
2.53518413314539e-05 -1.7760331681111803e-06 0.0
1.769598352171524e-05 -6.338809562694541e-07 0.0
1.580882650201816e-05 -4.155979605122884e-07 0.0
8.354521259285625e-06 -2.876734956285729e-07 0.0
6.5035769249963196e-06 -4.6233689561594553e-07 0.0
0.0 0.0 0.0
3.910610679338993e-06 9.002924018440046e-07 0.0
6.7281782340193274e-06 1.573209411558992e-07 0.0
1.1867965351472071e-05 2.3382750154066006e-07 0.0
1.7151653871260328e-05 -1.0595481724259289e-07 0.0
2.0107371595473548e-05 3.681672021434244e-07 0.0
2.312878562380916e-05 -6.596984133101792e-07 0.0
2.0385213761181162e-05 -1.1499182543823114e-06 0.0
1.7339141015248057e-05 -5.030632155773117e-07 0.0
1.2049756107451009e-05 -5.80521002186704e-07 0.0
6.826312813340502e-06 -3.3320636988296023e-07 0.0
4.00833887350219e-06 -9.707356776060828e-07 0.0
0.0 0.0 0.0
1.042837353509058e-05 -1.3835755197052287e-07 0.0
8.38804609704644e-06 -2.413490402901285e-07 0.0
1.3470188689600931e-05 -2.029452288640821e-07 0.0
6.6347367024872884e-06 -6.064528022352477e-07 0.0
1.7418649193371313e-05 1.4934868482897046e-07 0.0
1.7353179085952205e-05 -7.643605270698351e-07 0.0
6.608425287121984e-06 4.4752818153096536e-07 0.0
9.591312377486271e-06 -9.704464841193528e-08 0.0
7.789302037598473e-06 8.822788723873184e-08 0.0
1.3563201213223923e-05 -2.218348099762302e-07 0.0
1.534195121478984e-05 -3.6351029859076755e-07 0.0
1.151976217653924e-05 -3.6993960254078644e-08 0.0
5.381544807430707e-06 2.9676475713492887e-07 0.0
5.7972616052516585e-06 -3.449358551993672e-07 0.0
2.84487636240672e-06 -1.0196071994659432e-07 0.0
1.4521153801732943e-05 -2.3345021543837362e-07 0.0
1.5782923881869638e-05 -2.3745171230232794e-07 0.0
1.686822428256113e-05 -4.5706411362115714e-07 0.0
1.7869298796302348e-05 -5.3800246242120746e-08 0.0
2.0770393602227477e-05 -4.925667598796353e-07 0.0
1.926806448283355e-05 -6.795861783729904e-07 0.0
1.5049911048538188e-05 -1.584725359906453e-07 0.0
1.6228776609636948e-05 -6.80546752312474e-08 0.0
1.598720071749135e-06 1.5697725988925945e-07 0.0
1.2078463470402709e-05 -2.2439572469653907e-07 0.0
2.2073160958414386e-05 -8.367261057877092e-07 0.0