# vtk DataFile Version 2.0
Really cool data
ASCII
DATASET POLYDATA
POINTS 57 float
0.0 0.0 0
0.125 0.0 0
0.125 0.008399999999999998 0
0.175 0.008399999999999998 0
0.175 0.0 0
0.3 0.0 0
0.3 0.1 0
0.175 0.1 0
0.175 0.09160000000000001 0
0.125 0.09160000000000001 0
0.125 0.1 0
0.0 0.1 0
0.06250000013078053 0.0 0
0.125 0.004200000010397947 0
0.1500000000542101 0.008399999999999998 0
0.175 0.004199999987135337 0
0.2375000000379471 0.0 0
0.3 0.05000000007786663 0
0.2374999999024218 0.09999999999999999 0
0.175 0.09579999991868485 0
0.1499999998970008 0.09160000000000001 0
0.125 0.09579999995663191 0
0.06249999984482352 0.1 0
0.0 0.05000000007786663 0
0.1369645336138251 0.07534703819036406 0
0.1157838021006624 0.07108206033340037 0
0.1291338851660266 0.0602138972924044 0
0.1454719132441611 0.06005186883810644 0
0.162500000027105 0.02463797628574772 0
0.1380676307175665 0.0457277381903895 0
0.1218284308869474 0.04303443194142297 0
0.1544962250770786 0.04674529374235007 0
0.1631085626538873 0.0627637199648067 0
0.1712801836735388 0.04663652027610175 0
0.1811824430135324 0.0582344753398641 0
0.1923868453844596 0.0422201288774043 0
0.1304616668909741 0.03119768125021821 0
0.1146339026687599 0.02926987068780233 0
0.1022386923004914 0.052030366741049 0
0.1479773860047798 0.03004156007979104 0
0.1631620094359708 0.07877488162250312 0
0.2021292796654561 0.07005479456379293 0
0.1769164589537693 0.07228557429819336 0
0.1364527844276834 0.01871473295059354 0
0.2202418494175497 0.03636120554614164 0
0.1908268993976228 0.0177709693807593 0
0.2567673041461964 0.05091657145540016 0
0.1781021164119912 0.03089988209100997 0
0.09349010178814145 0.0219070646686419 0
0.06773609677088602 0.05889266296733632 0
0.1033226558595519 0.08134358428548821 0
0.03133305033061034 0.06912752330885755 0
0.1511137997782823 0.07337370650419527 0
0.03418103785468278 0.02716607887713885 0
0.1628161792394193 0.03675969158900887 0
0.1266370884968543 0.02189557122215351 0
0.1766072539591798 0.02042720693937924 0
POLYGONS 88 352
3 16 5 46
3 30 26 38
3 20 9 24
3 8 20 40
3 12 1 48
3 24 9 25
3 3 45 56
3 40 32 42
3 14 28 39
3 29 36 39
3 8 40 42
3 38 25 50
3 27 26 29
3 27 31 32
3 14 39 43
3 31 29 39
3 6 18 46
3 32 34 42
3 32 40 52
3 27 29 31
3 17 6 46
3 22 11 51
3 44 16 46
3 29 30 36
3 24 25 26
3 39 28 54
3 24 26 27
3 32 31 33
3 41 44 46
3 39 36 43
3 45 47 56
3 27 32 52
3 0 12 53
3 18 41 46
3 31 39 54
3 29 26 30
3 34 41 42
3 48 49 53
3 36 37 55
3 20 24 52
3 32 33 34
3 45 35 47
3 11 23 51
3 36 30 37
3 28 47 54
3 2 43 55
3 24 27 52
3 40 20 52
3 23 0 53
3 49 51 53
3 51 23 53
3 47 33 54
3 12 48 53
3 33 31 54
3 49 38 50
3 47 28 56
3 43 36 55
3 34 33 35
3 48 38 49
3 44 35 45
3 35 33 47
3 16 44 45
3 37 30 38
3 41 35 44
3 34 35 41
3 37 38 48
3 49 22 51
3 22 49 50
3 1 13 48
3 13 2 48
3 2 14 43
3 2 37 48
3 37 2 55
3 14 3 28
3 3 15 45
3 28 3 56
3 15 4 45
3 4 16 45
3 5 17 46
3 19 18 7
3 19 8 41
3 41 8 42
3 9 21 50
3 25 9 50
3 21 10 50
3 10 22 50
3 18 19 41
3 26 25 38
CELL_DATA 88
SCALARS mises double 1
LOOKUP_TABLE default
7531852.321398849 7175487.256430916 9188966.967744244 9405069.241657408 5750175.088114946 7671238.431459356 6860521.851540812 7246674.372420356 7892191.977323148 7388417.769647222 8082339.823072966 7512413.809795114 7195306.947995767 7186833.3489299845 8348487.823828205 7124459.5872227205 7605261.396243979 7255313.082964111 7707248.958242522 7126143.2883327175 5939022.044902572 6483664.139841061 6531095.38737911 7135230.079406476 7268715.755021084 7598096.220251742 7173867.719536866 7045266.149968914 6179964.044826441 7430849.853650952 7100529.681869376 7224363.573205882 6528453.637319426 6587851.248299197 7335573.262453528 7249683.35427276 6878193.66948421 6852644.168940085 7041212.576684668 7924473.83176535 7067402.881971004 7346783.192484282 5991694.398522371 7208471.205956693 7304807.830444398 8405162.700578539 7812761.434302264 8162115.15129734 5991272.553690993 6571399.415246613 6147666.894755421 7365816.205729244 6891549.888560025 7029401.35684891 7095317.620113078 7762084.6952578835 7846019.247970499 7123196.194339761 7284762.545386993 6638933.376406233 6945053.935424945 6632175.4796242565 7414127.316722693 6918502.134360955 7186962.360453248 7272143.961194575 6839997.02673375 6569360.294354505 5924069.727231742 7507645.292028824 9505584.324470408 6578597.863548443 7847911.863182773 9272694.908755345 8206292.579614187 7410803.869515897 5153765.7336337045 6177206.691215296 5796036.18397544 6253235.433969914 7830757.664232977 7067493.523981128 7936399.76372191 6502613.0444477685 5595230.624181906 5723030.018842674 6223370.55575303 7447116.740669536
VECTORS principal_stress_1 float
7580617.620842168 -480940.4800463479 0.0
7268169.780061762 37804.06955036087 0.0
9306502.990337193 -381414.28938692977 0.0
9498044.789885608 411606.6825930505 0.0
5826194.5459157275 377985.33643360116 0.0
7796611.7213636935 -698864.3421565457 0.0
7033048.258698532 -880810.5176517261 0.0
7519334.5274461955 147465.40587961956 0.0
8017091.194717291 -105260.03512610715 0.0
7648756.354550905 18091.44436098776 0.0
8259183.963932009 752763.1762801654 0.0
7424197.235697808 -142763.79711972468 0.0
7453430.375861856 75502.16612415701 0.0
7509926.964101763 10699.19061554809 0.0
8533752.665912269 32473.72208994519 0.0
7421268.727722608 41781.799779407855 0.0
7635395.785780046 494428.2504933751 0.0
7439752.718533858 225305.86982994195 0.0
8028793.618086207 318673.9262761213 0.0
7435593.952233512 -21626.702470684035 0.0
5759948.667636423 1148351.3839603164 0.0
6749481.324859676 -396398.9861438014 0.0
6493855.178014453 -365507.78520222724 0.0
7356301.568513951 107142.47296331558 0.0
7461182.090505997 11507.148926708416 0.0
7923750.20993255 -259279.14602762094 0.0
7462908.21390649 -165006.90390816733 0.0
7342105.737134213 71851.97993924815 0.0
6142704.102324313 -25422.284508678385 0.0
7691532.513585775 289558.2962888853 0.0
7181188.257620933 -405543.4396045855 0.0
7471461.52512992 32462.760592067487 0.0
6786263.395419925 330596.06020997843 0.0
6573491.577914951 449498.9379288613 0.0
7654891.004805784 -2822.685247606047 0.0
7402833.5711247185 -84016.75692435213 0.0
7015652.631858845 151863.8965464992 0.0
6770007.63819166 135654.56167780628 0.0
7207181.130552962 361261.61478576256 0.0
8037815.956267163 -87482.4565289057 0.0
7320256.57408623 -14469.615240655923 0.0
7425019.336953775 -324102.5760022002 0.0
6539953.529580653 -232131.86979858455 0.0
7289292.771907919 -66622.53841307797 0.0
7593196.921626005 -64655.992935549984 0.0
8527449.933464695 801091.3460315501 0.0
8116527.34437319 -81443.90546316428 0.0
8309099.146491502 39123.12579631136 0.0
6541189.668972245 301004.0139439702 0.0
6826559.479270431 -106631.36938445065 0.0
6370274.793712256 19630.59944125593 0.0
7596023.421736559 -52109.908763822015 0.0
6696902.551727083 -8233.20782302993 0.0
7352036.72350729 -81132.9792240953 0.0
6965431.975029328 -222855.3089145137 0.0
7898567.597843536 -384231.88269305177 0.0
8076696.195350132 239946.08224398558 0.0
7251994.804887641 122815.40836811914 0.0
7113481.714281646 102273.816475057 0.0
6662096.64204513 -457051.7137621719 0.0
7096927.1183999255 -214934.20234361888 0.0
6581823.871886284 -384932.6539985107 0.0
7369717.557322278 120049.32009554982 0.0
6918852.9373018425 81587.123759876 0.0
7226913.05663765 16406.12416735106 0.0
7145375.804974433 -7865.354654551159 0.0
6726409.435413701 -103709.94439790296 0.0
6457713.298287131 67490.63793403306 0.0
5895340.760340786 366261.176263203 0.0
7423471.333302176 1248150.5657316984 0.0
9527688.731003014 433214.2465115835 0.0
6627801.072086033 661028.4228192628 0.0
7919896.182624657 748670.4260162436 0.0
9437794.755373606 -446952.92821100296 0.0
8135808.750411802 -1374049.3888993277 0.0
7619622.810641464 -847445.313081384 0.0
5184714.895261338 -395297.0565577655 0.0
6298927.043401717 -758295.2511709802 0.0
5635826.491899226 -1136681.9794279244 0.0
6281473.655137518 422115.03845671745 0.0
7795630.973133391 976323.3767808849 0.0
7162382.4538731435 802139.1211730157 0.0
7819291.939437748 -1378078.2003215714 0.0
6521155.306913248 -505389.1871089918 0.0
5563539.061914004 -334201.96531945537 0.0
5820099.203210068 -514523.002358327 0.0
6275846.187804007 557119.6218012564 0.0
7376935.905151206 -152925.81886655084 0.0
VECTORS principal_stress_2 float
480940.4800463479 7580617.620842168 0.0
-37804.06955036038 7268169.780061762 0.0
381414.28938693105 9306502.990337193 0.0
-411606.68259304925 9498044.789885608 0.0
-377985.33643360075 5826194.5459157275 0.0
698864.3421565468 7796611.7213636935 0.0
880810.5176517265 7033048.258698532 0.0
-147465.40587961985 7519334.5274461955 0.0
105260.03512610796 8017091.194717291 0.0
-18091.444360987047 7648756.354550905 0.0
-752763.1762801651 8259183.963932009 0.0
142763.79711972576 7424197.235697808 0.0
-75502.16612415628 7453430.375861856 0.0
-10699.190615547295 7509926.964101763 0.0
-32473.722089945473 8533752.665912269 0.0
-41781.79977940727 7421268.727722608 0.0
-494428.25049337524 7635395.785780046 0.0
-225305.86982994206 7439752.718533858 0.0
-318673.92627612123 8028793.618086207 0.0
21626.702470684962 7435593.952233512 0.0
-1148351.3839603164 5759948.667636423 0.0
396398.98614380177 6749481.324859676 0.0
365507.78520222753 6493855.178014453 0.0
-107142.47296331463 7356301.568513951 0.0
-11507.148926707861 7461182.090505997 0.0
259279.14602762138 7923750.20993255 0.0
165006.9039081683 7462908.21390649 0.0
-71851.9799392474 7342105.737134213 0.0
25422.284508678582 6142704.102324313 0.0
-289558.2962888842 7691532.513585775 0.0
405543.4396045858 7181188.257620933 0.0
-32462.760592067196 7471461.52512992 0.0
-330596.06020997814 6786263.395419925 0.0
-449498.9379288611 6573491.577914951 0.0
2822.6852476073223 7654891.004805784 0.0
84016.75692435181 7402833.5711247185 0.0
-151863.89654649943 7015652.631858845 0.0
-135654.56167780588 6770007.63819166 0.0
-361261.61478576146 7207181.130552962 0.0
87482.45652890592 8037815.956267163 0.0
14469.615240656682 7320256.57408623 0.0
324102.5760022001 7425019.336953775 0.0
232131.869798585 6539953.529580653 0.0
66622.53841307803 7289292.771907919 0.0
64655.99293555072 7593196.921626005 0.0
-801091.3460315503 8527449.933464695 0.0
81443.90546316451 8116527.34437319 0.0
-39123.12579631025 8309099.146491502 0.0
-301004.01394396956 6541189.668972245 0.0
106631.36938445177 6826559.479270431 0.0
-19630.599441255 6370274.793712256 0.0
52109.9087638224 7596023.421736559 0.0
8233.207823029803 6696902.551727083 0.0
81132.97922409525 7352036.72350729 0.0
222855.30891451423 6965431.975029328 0.0
384231.88269305305 7898567.597843535 0.0
-239946.0822439845 8076696.195350132 0.0
-122815.40836811814 7251994.804887641 0.0
-102273.81647505585 7113481.714281646 0.0
457051.7137621723 6662096.64204513 0.0
214934.20234361946 7096927.1183999255 0.0
384932.65399851045 6581823.871886284 0.0
-120049.32009554956 7369717.557322278 0.0
-81587.12375987628 6918852.9373018425 0.0
-16406.124167350128 7226913.05663765 0.0
7865.354654550936 7145375.804974433 0.0
103709.94439790322 6726409.435413701 0.0
-67490.6379340331 6457713.298287131 0.0
-366261.17626320204 5895340.760340786 0.0
-1248150.5657316977 7423471.333302176 0.0
-433214.24651158287 9527688.731003014 0.0
-661028.4228192632 6627801.072086033 0.0
-748670.4260162428 7919896.182624657 0.0
446952.9282110037 9437794.755373606 0.0
1374049.3888993284 8135808.750411802 0.0
847445.3130813837 7619622.810641464 0.0
395297.0565577657 5184714.895261338 0.0
758295.2511709812 6298927.043401716 0.0
1136681.9794279248 5635826.491899226 0.0
-422115.03845671716 6281473.655137518 0.0
-976323.3767808841 7795630.973133391 0.0
-802139.121173016 7162382.4538731435 0.0
1378078.2003215714 7819291.939437748 0.0
505389.18710899155 6521155.306913248 0.0
334201.96531945583 5563539.061914004 0.0
514523.0023583277 5820099.203210068 0.0
-557119.6218012564 6275846.187804007 0.0
152925.818866552 7376935.905151206 0.0
POINT_DATA 57
VECTORS displacements float
0.0 0.0 0.0
3.744215209220369e-05 3.37978435441882e-06 0.0
3.844147828065942e-05 2.751811816899942e-06 0.0
6.113032030442932e-05 2.5630534451957265e-06 0.0
6.224909908713365e-05 3.167283187186687e-06 0.0
0.00010364065715184285 4.837536227320054e-06 0.0
0.00010338902255753795 -3.306364822410978e-06 0.0
6.169605299587262e-05 -2.6883153010219492e-06 0.0
6.088985883131017e-05 -2.0888904658629877e-06 0.0
3.8402585975281416e-05 -2.419749364191512e-06 0.0
3.725343585827245e-05 -3.0706406774314925e-06 0.0
0.0 0.0 0.0
2.0049496924774272e-05 3.6997255906821772e-06 0.0
3.7675444645679415e-05 3.1259977934457496e-06 0.0
4.987530439553957e-05 2.396767428609122e-06 0.0
6.203342611476673e-05 2.964980247362807e-06 0.0
8.094839768988753e-05 3.842191200305947e-06 0.0
9.611620866673211e-05 8.370156917613691e-07 0.0
8.051119114578396e-05 -2.7446318751806565e-06 0.0
6.148816540575525e-05 -2.4409261308761932e-06 0.0
4.952541543256084e-05 -2.012772549860154e-06 0.0
3.749391321235225e-05 -2.829574276841305e-06 0.0
1.9922924437326344e-05 -3.712763074868727e-06 0.0
0.0 0.0 0.0
4.4688993692089404e-05 -9.469768545099215e-07 0.0
3.730304565099605e-05 -1.3956297213384436e-06 0.0
4.237162021819384e-05 -4.0200500651309844e-07 0.0
4.814062472261979e-05 -1.998665506540041e-07 0.0
5.4584722000905925e-05 1.256625715949329e-06 0.0
4.558156943885403e-05 3.6183477792868403e-07 0.0
3.986231853966612e-05 5.987015289019726e-07 0.0
5.134644383302233e-05 3.306960195431205e-07 0.0
5.4388576425695114e-05 -2.7442523304105904e-07 0.0
5.7167654110298834e-05 4.046119209774835e-07 0.0
6.0640861381818374e-05 -1.6162167760194646e-07 0.0
6.44546137009258e-05 8.608394000447993e-07 0.0
4.266220418821617e-05 1.115638804059782e-06 0.0
3.710606540467549e-05 1.6378289807358197e-06 0.0
3.303693546667111e-05 -6.589031850477177e-08 0.0
4.8997376158089715e-05 1.0077101923253583e-06 0.0
5.487081621000364e-05 -9.880925148182887e-07 0.0
6.795459239470998e-05 -9.902475534936494e-07 0.0
5.957822078284532e-05 -8.809513230560574e-07 0.0
4.434072746509324e-05 1.657382902190513e-06 0.0
7.366502978195634e-05 1.2532435750110691e-06 0.0
6.526535437037584e-05 2.4045101918446962e-06 0.0
8.432711963808749e-05 6.112077490547137e-07 0.0
6.001192902850329e-05 1.3161987186167133e-06 0.0
2.9721663050982384e-05 2.453982278112323e-06 0.0
2.1195532346961827e-05 -7.326124361823399e-07 0.0
3.251690287551827e-05 -2.3910645425971453e-06 0.0
9.454108651964844e-06 -6.719828426638432e-07 0.0
5.014588097350196e-05 -8.056234244501265e-07 0.0
1.0312704479730325e-05 9.511274662163262e-07 0.0
5.435758661240232e-05 7.368875130100273e-07 0.0
4.073360327513305e-05 1.7146409839872054e-06 0.0
6.020400411003677e-05 1.935065428210875e-06 0.0