# vtk DataFile Version 2.0
Really cool data
ASCII
DATASET POLYDATA
POINTS 56 float
0.0 0.0 0
0.125 0.0 0
0.125 0.02168 0
0.175 0.02168 0
0.175 0.0 0
0.3 0.0 0
0.3 0.1 0
0.175 0.1 0
0.175 0.07832 0
0.125 0.07832 0
0.125 0.1 0
0.0 0.1 0
0.06250000013078053 0.0 0
0.125 0.01084000002153391 0
0.1500000000542101 0.02168 0
0.175 0.01083999997775611 0
0.2375000000379471 0.0 0
0.3 0.05000000007786663 0
0.2374999999024218 0.09999999999999999 0
0.175 0.08915999994850039 0
0.1499999998970008 0.07832000000000003 0
0.125 0.08916000000542101 0
0.06249999984482352 0.1 0
0.0 0.05000000007786663 0
0.1368892959084932 0.06200603402682205 0
0.120140958517644 0.06456209265092971 0
0.1637164841307281 0.03526200861939471 0
0.1290541385807141 0.0482303870851038 0
0.1642479383233758 0.06275424920714573 0
0.1060922011754382 0.08201421016648396 0
0.1931726889845802 0.01818314819149547 0
0.191165961758835 0.08322389286937008 0
0.1085918008533965 0.01641335007237585 0
0.1130662318791237 0.04951131186836555 0
0.1445036210442813 0.04774194204443433 0
0.1365052565948278 0.03503581255673501 0
0.117623672813591 0.03357555653246358 0
0.1499475838736472 0.03550492341035202 0
0.1583645378496413 0.04929359496211934 0
0.1718119251321835 0.04895552197303459 0
0.1826769139192801 0.0656274706899106 0
0.1875341600278752 0.05142667371415467 0
0.1814216381026602 0.03476551843576155 0
0.1506435973601259 0.05980132437378638 0
0.03406478119175316 0.03133097646151167 0
0.07046829209292825 0.04199161502880285 0
0.09572254251291368 0.03504930211584682 0
0.03735561373505702 0.06466326720088891 0
0.08104004852244348 0.07279557315027416 0
0.09775504578341522 0.05765401749678384 0
0.2659543714338569 0.0686929643369949 0
0.2301723762326189 0.05716715064538643 0
0.2043906636969375 0.06508849100588528 0
0.2626512623806992 0.035345327980083 0
0.2196762873922798 0.02753139226186031 0
0.2027279690728253 0.04236039570909061 0
POLYGONS 86 344
3 29 22 48
3 30 16 54
3 52 41 55
3 20 9 24
3 8 28 40
3 24 9 25
3 31 40 52
3 2 14 35
3 29 48 49
3 45 46 49
3 32 36 46
3 41 39 42
3 28 39 40
3 40 41 52
3 51 52 55
3 32 2 36
3 36 33 46
3 30 54 55
3 42 30 55
3 24 27 34
3 28 38 39
3 24 25 27
3 39 26 42
3 2 35 36
3 34 27 35
3 22 11 47
3 16 5 53
3 6 18 50
3 0 12 44
3 48 45 49
3 38 26 39
3 41 42 55
3 25 29 49
3 14 26 37
3 54 51 55
3 11 23 47
3 5 17 53
3 33 25 49
3 37 26 38
3 35 27 36
3 27 25 33
3 47 45 48
3 53 51 54
3 28 20 43
3 7 19 31
3 1 13 32
3 15 4 30
3 21 10 29
3 34 37 38
3 20 24 43
3 51 18 52
3 45 12 46
3 40 39 41
3 24 34 43
3 34 35 37
3 23 0 44
3 17 6 50
3 27 33 36
3 44 45 47
3 50 51 53
3 22 47 48
3 16 53 54
3 44 12 45
3 50 18 51
3 9 21 29
3 3 15 30
3 13 2 32
3 19 8 31
3 34 38 43
3 23 44 47
3 17 50 53
3 38 28 43
3 35 14 37
3 4 16 30
3 10 22 29
3 12 1 32
3 14 3 26
3 26 3 42
3 3 30 42
3 18 7 31
3 8 20 28
3 31 8 40
3 25 9 29
3 12 32 46
3 18 31 52
3 46 33 49
CELL_DATA 86
SCALARS mises double 1
LOOKUP_TABLE default
5722566.528978909 5762586.070183478 9030661.837128986 13465993.162968772 9213476.925390705 9407033.492573997 8311108.461574798 13793895.091948405 6576826.4455965785 7775400.7584202755 8569033.600710487 9538740.502821693 9841493.159364305 8252957.953513709 7246676.474452715 7974891.871411378 8417889.632329375 6359442.524407738 8968887.883269722 9576788.57914302 9528170.758084536 10014997.70825529 9898653.087491965 9626775.080438491 9637862.83261725 6572700.207557642 8273954.800901053 8433016.328391345 6493521.3060215665 8458370.920592425 9485957.93485608 7918601.023890034 9035061.057473442 11334289.751861714 7964368.386908846 5975042.091749999 6463902.5533798495 8167334.606755527 11058998.254178016 9991094.449333595 9238070.906940082 7238659.5361459935 6411745.93997926 11044851.540106818 2784252.0305977063 2761552.67605042 3023721.2778433617 3134117.8602800397 10434675.246176649 10999538.386044055 7064922.416170392 7446669.473108227 9032600.875684418 10751893.726395432 11177587.39889732 5997088.571909754 6860259.177479039 9539881.393477635 7024119.120957007 6503535.335015615 7097177.340383124 6488474.740325825 7241429.860492209 6468203.264695214 6315752.319633254 6466812.110660218 5630776.739558913 5987996.276066923 10392011.482220419 6234474.848511416 4348655.848739108 10706040.261399103 11421946.72390166 4517311.601268279 4140217.033550144 4300193.199939886 13734582.479445383 9776882.042457663 7726054.168062686 4605673.202035149 13521393.24934783 8142525.938165951 7673690.167365454 5271541.300034493 5370180.077588667 9321222.404045187
VECTORS principal_stress_1 float
5588473.784105735 -127243.78288420079 0.0
5801204.51481825 -533514.2689717414 0.0
8943242.63021905 209591.9787115221 0.0
14018608.217139423 -1297666.0208224084 0.0
9969185.27112142 2148542.6493204967 0.0
10165523.668484472 -2044221.1121812575 0.0
8647327.542883657 1683362.2297028126 0.0
14280322.813040836 1380616.4013989293 0.0
6357817.249753283 -848828.429305294 0.0
7277936.743329123 330817.61601126357 0.0
8842620.057072977 1543259.6579809417 0.0
9927570.427835602 -714574.762303579 0.0
10466518.576636698 195067.81909880205 0.0
8405315.913515126 356556.848353215 0.0
6937903.884157459 370340.60515610134 0.0
8348920.054558103 1419361.6741822422 0.0
8477900.532812564 264741.8321307805 0.0
6290117.473131646 -992369.5193874142 0.0
9175078.86436198 -1439918.8996906406 0.0
10338050.575394627 -401184.31455365353 0.0
10303091.038472276 523356.9796870712 0.0
10640879.988483539 -133661.80245908088 0.0
10522773.049115922 -255962.31529700404 0.0
10472728.750641575 2387915.4027073598 0.0
10414939.848947754 632306.4725905336 0.0
6704734.252278228 -497422.1389648489 0.0
8030315.234286691 -636120.7000094726 0.0
8121760.106685669 697227.2000945214 0.0
6649224.268803376 520751.03261500015 0.0
8136444.959499943 -224941.6011499208 0.0
10240688.66221114 -499396.8360248244 0.0
8081794.9230676405 -303836.29419959616 0.0
9122596.290673029 -1272204.9575770583 0.0
11593550.127076631 -333224.7048526726 0.0
7896535.256330087 -323391.2760015168 0.0
6522639.62732479 -268723.23100364686 0.0
6158647.073887918 -1308188.6646366443 0.0
8319767.28694736 -302837.5774081927 0.0
11830182.429067835 -608087.4522075242 0.0
10594363.152551174 272675.36627427314 0.0
9604267.730946006 -728853.0231082952 0.0
6866863.445716019 -242662.02757858418 0.0
6262677.02582448 -282398.6230705988 0.0
11367865.167499064 375424.24061770603 0.0
2292738.9553186186 51085.348996426874 0.0
2304185.2527759965 52886.71552769236 0.0
2681508.179800067 -201146.67538004037 0.0
2813289.94872695 -218702.46391520058 0.0
10926054.617256904 457.8460857857194 0.0
11288165.779583074 -388886.2993273972 0.0
7046233.746787187 460124.21136401716 0.0
7167271.262267713 135199.36168173794 0.0
9393277.290959083 787541.6400972338 0.0
11486921.194831535 -388734.16563748766 0.0
11889587.094979092 525729.823497077 0.0
6547247.524846113 290622.94298727554 0.0
6491486.652872958 1296517.2705296546 0.0
9859425.036945635 790028.9594827725 0.0
7149731.329674067 50067.934602258116 0.0
6727944.64960321 97494.83335691234 0.0
6809709.049755361 -85442.51736980068 0.0
6421136.548893446 -551838.5202244458 0.0
6917476.525175572 216849.26906144284 0.0
6395734.730632306 437398.4205760198 0.0
7745434.208131414 -3968937.855743824 0.0
7854986.939926628 -3955144.144007026 0.0
7276564.503932653 4071576.84879195 0.0
7572429.567448102 4099328.0395329776 0.0
10937622.157192785 54401.17545445715 0.0
6291281.788164402 -39192.71953248072 0.0
4350977.868250852 188638.02149823596 0.0
11492409.78684847 530921.747921312 0.0
11693565.914682347 346155.81345086417 0.0
5076978.7525202865 -1628870.8460150168 0.0
4632248.7075981125 -1424219.952813917 0.0
4812012.813251742 1501707.1280167107 0.0
14241750.675468514 -1415593.0220399906 0.0
10596482.320712522 -2315306.476235592 0.0
8140307.686006586 -1469706.8987204954 0.0
5170259.681013957 1652353.6831521161 0.0
14101909.509165326 1403866.2145209243 0.0
8572827.377660785 1486719.336689349 0.0
8078165.808074748 -1316054.2964141348 0.0
5201457.261429255 615984.8214565858 0.0
5485555.179263977 911471.6091166078 0.0
9035967.019585859 173816.88136454605 0.0
VECTORS principal_stress_2 float
127243.78288420102 5588473.784105735 0.0
533514.268971742 5801204.51481825 0.0
-209591.9787115211 8943242.63021905 0.0
1297666.0208224077 14018608.217139423 0.0
-2148542.6493204962 9969185.27112142 0.0
2044221.112181257 10165523.668484472 0.0
-1683362.2297028124 8647327.542883657 0.0
-1380616.4013989298 14280322.813040836 0.0
848828.4293052946 6357817.249753283 0.0
-330817.616011263 7277936.743329123 0.0
-1543259.6579809412 8842620.057072977 0.0
714574.7623035789 9927570.427835602 0.0
-195067.81909880048 10466518.576636698 0.0
-356556.8483532148 8405315.913515126 0.0
-370340.60515610134 6937903.884157459 0.0
-1419361.6741822422 8348920.054558103 0.0
-264741.83213078056 8477900.532812564 0.0
992369.5193874149 6290117.473131646 0.0
1439918.8996906413 9175078.86436198 0.0
401184.31455365324 10338050.575394627 0.0
-523356.97968706983 10303091.038472276 0.0
133661.802459081 10640879.988483539 0.0
255962.31529700584 10522773.049115922 0.0
-2387915.4027073593 10472728.750641575 0.0
-632306.4725905337 10414939.848947754 0.0
497422.1389648486 6704734.252278228 0.0
636120.7000094738 8030315.234286691 0.0
-697227.2000945217 8121760.106685669 0.0
-520751.03261499904 6649224.268803376 0.0
224941.60114992064 8136444.959499943 0.0
499396.83602482494 10240688.66221114 0.0
303836.29419959645 8081794.9230676405 0.0
1272204.9575770593 9122596.290673029 0.0
333224.70485267433 11593550.127076631 0.0
323391.27600151766 7896535.256330087 0.0
268723.231003647 6522639.62732479 0.0
1308188.6646366448 6158647.073887918 0.0
302837.5774081935 8319767.28694736 0.0
608087.4522075257 11830182.429067835 0.0
-272675.3662742715 10594363.152551174 0.0
728853.0231082953 9604267.730946006 0.0
242662.0275785839 6866863.445716019 0.0
282398.6230705992 6262677.02582448 0.0
-375424.24061770557 11367865.167499064 0.0
-51085.348996426575 2292738.9553186186 0.0
-52886.71552769216 2304185.2527759965 0.0
201146.6753800404 2681508.179800067 0.0
218702.4639152009 2813289.94872695 0.0
-457.8460857855342 10926054.617256904 0.0
388886.29932739807 11288165.779583074 0.0
-460124.21136401617 7046233.746787187 0.0
-135199.361681737 7167271.262267713 0.0
-787541.6400972343 9393277.290959083 0.0
388734.165637487 11486921.194831535 0.0
-525729.8234970762 11889587.094979092 0.0
-290622.94298727514 6547247.524846113 0.0
-1296517.2705296548 6491486.652872958 0.0
-790028.9594827723 9859425.036945635 0.0
-50067.93460225828 7149731.329674067 0.0
-97494.83335691121 6727944.64960321 0.0
85442.51736980035 6809709.049755361 0.0
551838.5202244469 6421136.548893446 0.0
-216849.26906144217 6917476.525175572 0.0
-437398.4205760195 6395734.730632306 0.0
3968937.855743824 7745434.208131414 0.0
3955144.144007026 7854986.939926628 0.0
-4071576.8487919504 7276564.503932652 0.0
-4099328.0395329767 7572429.567448102 0.0
-54401.175454457225 10937622.157192785 0.0
39192.719532480514 6291281.788164402 0.0
-188638.0214982355 4350977.868250852 0.0
-530921.7479213114 11492409.78684847 0.0
-346155.81345086324 11693565.914682347 0.0
1628870.8460150168 5076978.7525202865 0.0
1424219.952813917 4632248.7075981125 0.0
-1501707.1280167107 4812012.813251742 0.0
1415593.0220399918 14241750.675468514 0.0
2315306.4762355927 10596482.320712522 0.0
1469706.8987204963 8140307.686006586 0.0
-1652353.6831521152 5170259.681013957 0.0
-1403866.214520922 14101909.509165326 0.0
-1486719.3366893488 8572827.377660785 0.0
1316054.296414135 8078165.808074748 0.0
-615984.8214565855 5201457.261429255 0.0
-911471.6091166076 5485555.179263977 0.0
-173816.88136454526 9035967.01958586 0.0
POINT_DATA 56
VECTORS displacements float
0.0 0.0 0.0
3.319676994194625e-05 2.0174268998101305e-06 0.0
4.0473745744697904e-05 1.1204584827117314e-06 0.0
7.416795269587298e-05 1.5059511719127107e-06 0.0
8.139568643157048e-05 2.568100705388791e-06 0.0
0.00011988876708670782 6.609834159039081e-06 0.0
0.00011936075507941651 -3.801618621001202e-06 0.0
8.026187031720183e-05 -1.622704434449046e-06 0.0
7.344014454906922e-05 -6.149946239813799e-07 0.0
4.029815746982744e-05 -1.1091100799619435e-06 0.0
3.290636391803777e-05 -2.1321357874832554e-06 0.0
0.0 0.0 0.0
1.975301878448155e-05 4.5616056406006385e-06 0.0
3.426501744852628e-05 1.3821707372581415e-06 0.0
5.735054161813352e-05 2.0872013469773703e-06 0.0
8.0229504464444e-05 1.9704557582029316e-06 0.0
9.55327850243931e-05 4.561289110356963e-06 0.0
0.00010936345864456997 1.5952237833765696e-06 0.0
9.466838488855104e-05 -2.3273993353317055e-06 0.0
7.946849008528197e-05 -9.63374162549219e-07 0.0
5.682935940427766e-05 -1.7976976944640892e-06 0.0
3.416794771967154e-05 -1.5359377164027748e-06 0.0
1.9952772268587124e-05 -4.6834685839174995e-06 0.0
0.0 0.0 0.0
4.99780941906606e-05 -8.124223408230039e-08 0.0
4.149352990509645e-05 -8.767865893223793e-07 0.0
6.481017346281608e-05 5.293466477260329e-07 0.0
4.68403310071066e-05 7.258907398030273e-08 0.0
6.469711167314253e-05 1.4739230403333325e-07 0.0
3.234709175680585e-05 -2.7658714285539136e-06 0.0
8.187972580414039e-05 3.001318940661409e-06 0.0
8.094061884167064e-05 -1.6566607186341752e-06 0.0
3.287773905541088e-05 2.5394252987858986e-06 0.0
3.9485890173768396e-05 -3.03829047139186e-08 0.0
5.42765927048637e-05 1.835478772334275e-07 0.0
4.972780676651284e-05 3.1602640475287675e-07 0.0
4.026569302711103e-05 1.0122678716740634e-06 0.0
5.720643490415651e-05 8.99241789307647e-07 0.0
6.139979259373417e-05 2.431903024698358e-07 0.0
6.781219455145328e-05 4.3408502723841236e-07 0.0
7.384452800271165e-05 -3.7598808716169003e-07 0.0
7.496416707119397e-05 4.766440362667012e-07 0.0
7.356422995022484e-05 1.3651270294011232e-06 0.0
5.738582217594542e-05 -3.331107215602933e-07 0.0
1.0287605869479822e-05 9.15107265597336e-07 0.0
2.2655674092217706e-05 7.035416623055462e-07 0.0
3.14661741198974e-05 1.7129817039035279e-06 0.0
1.1239968757891532e-05 -9.277152391731631e-07 0.0
2.5849843137340143e-05 -2.570777458204874e-06 0.0
3.2977261282564947e-05 -8.605097475248703e-07 0.0
0.00010244078676254482 4.2078932347645686e-07 0.0
9.103684551042266e-05 5.107610915810378e-07 0.0
8.251795635023323e-05 -7.432442995490209e-07 0.0
0.00010140518684257622 1.7825001426713754e-06 0.0
8.853691315107901e-05 2.8383653269263013e-06 0.0
8.133555464305541e-05 1.3974127534400355e-06 0.0