# vtk DataFile Version 2.0
Really cool data
ASCII
DATASET POLYDATA
POINTS 50 float
0.0 0.0 0
0.125 0.0 0
0.125 0.025 0
0.175 0.025 0
0.175 0.0 0
0.3 0.0 0
0.3 0.1 0
0.175 0.1 0
0.175 0.07500000000000001 0
0.125 0.07500000000000001 0
0.125 0.1 0
0.0 0.1 0
0.06250000013078053 0.0 0
0.125 0.01250000001946666 0
0.1500000000542101 0.025 0
0.175 0.01249999996954492 0
0.2375000000379471 0.0 0
0.3 0.05000000007786663 0
0.2374999999024218 0.09999999999999999 0
0.175 0.08749999992410586 0
0.1499999998970008 0.07500000000000002 0
0.125 0.08749999998373698 0
0.06249999984482352 0.1 0
0.0 0.05000000007786663 0
0.1368030376589693 0.05881183609165548 0
0.117775623603241 0.06013038045187373 0
0.162500000027105 0.041237976310672 0
0.107309198575727 0.08007003580073291 0
0.19212308841714 0.01780898906300205 0
0.1901864428630649 0.07906464689515667 0
0.1094436020031466 0.01874551931480652 0
0.1291338851563814 0.04361389724778988 0
0.1114151539582876 0.04074826126195277 0
0.1624999999485004 0.06043297861285827 0
0.1787552186679302 0.06017424107710374 0
0.1459442698801169 0.044214050543324 0
0.08315066519904095 0.03531547250623295 0
0.08792340551106274 0.06122065477279754 0
0.04632429568687593 0.05307658962797577 0
0.172304892364689 0.04902546201312089 0
0.1850949657786914 0.04563198790008897 0
0.1965712954394372 0.05628532213281995 0
0.2087061817377232 0.03693437174515411 0
0.253205755539793 0.04383466385996593 0
0.2266612590318197 0.06518650077867166 0
0.1762118450318149 0.03854480335931212 0
0.1861593669885893 0.03182859057267874 0
0.02720607395441411 0.0257691474264606 0
0.1502126267551182 0.05641628411908355 0
0.2685302890076256 0.07336950662279432 0
POLYGONS 74 296
3 5 17 43
3 8 20 33
3 28 16 42
3 2 31 32
3 20 9 24
3 30 2 32
3 18 29 44
3 25 27 37
3 24 9 25
3 16 5 43
3 8 33 34
3 27 22 37
3 12 36 38
3 42 43 44
3 33 26 39
3 26 33 48
3 35 26 48
3 11 23 38
3 22 11 38
3 14 26 35
3 44 43 49
3 32 25 37
3 42 16 43
3 6 18 49
3 29 34 41
3 24 31 35
3 24 25 31
3 12 38 47
3 0 12 47
3 7 19 29
3 1 13 30
3 21 10 27
3 15 4 28
3 18 44 49
3 31 25 32
3 28 42 46
3 37 22 38
3 30 32 36
3 43 17 49
3 20 24 48
3 34 33 39
3 33 20 48
3 17 6 49
3 23 0 47
3 39 26 45
3 24 35 48
3 34 39 40
3 40 39 45
3 38 23 47
3 3 15 28
3 9 21 27
3 13 2 30
3 19 8 29
3 41 42 44
3 36 32 37
3 45 3 46
3 42 40 46
3 34 40 41
3 41 40 42
3 40 45 46
3 3 28 46
3 4 16 28
3 10 22 27
3 12 1 30
3 2 14 31
3 14 3 26
3 26 3 45
3 18 7 29
3 29 8 34
3 25 9 27
3 12 30 36
3 31 14 35
3 29 41 44
3 36 37 38
CELL_DATA 74
SCALARS mises double 1
LOOKUP_TABLE default
4322612.993045018 11228924.7245878 3917906.5184811056 6999795.003621284 11021687.438349383 6889734.576765167 4440648.604301884 6493138.09015242 7610750.997124202 5728006.527253746 8106779.748981183 4219938.774875591 5405819.129265759 4993159.571606375 7534906.365745107 8693390.070354268 8787132.332865192 4471546.433173136 4899253.046628348 8927972.410783123 4904652.171990797 6638886.622895224 5170784.46883328 6261850.505015015 7261774.350918233 8414707.964304151 7876332.776210407 5061910.7011205265 4696829.888420198 1529587.5310511533 1638110.7674481785 1842586.4502492063 1985047.6173605965 4936388.818486739 7655027.912407849 6333096.757710923 5496647.502394093 5827255.542290118 3673213.647909112 9263210.98052385 8061550.105039941 9105137.675020056 5327463.485988426 4278679.291589176 8352307.856088726 9164959.69577294 7597687.789608623 6998012.554673756 4584255.98388697 3934028.6408882486 4572572.763990412 4280061.947952204 5116320.958538698 6256623.406485864 6682914.985164105 6279113.861374581 5918992.913677305 6545464.217795457 6941287.773165455 7605682.008096363 6385493.861952743 3138864.560709749 2906822.5971112116 2915098.5089549804 10542317.412493063 11116898.56783022 7706615.911613022 3130453.3492422095 6481179.269516972 6324997.509596748 4175763.467149075 8528397.604416763 5192894.230366528 5663560.409385444
VECTORS principal_stress_1 float
4203061.241355501 -930622.7061915364 0.0
11687542.482087458 1085566.1753977253 0.0
3937729.8221560623 -625718.2198076595 0.0
7396738.960473909 1334673.192923205 0.0
11505272.20416288 -1103393.6488242769 0.0
7084105.121272027 1040041.5980125661 0.0
4409368.689669634 358676.4070823368 0.0
6627349.59454589 -1262935.7349256668 0.0
8278190.644702875 -1725089.0102582586 0.0
5590347.949701609 -431655.59467261937 0.0
8822997.58861793 1840218.1690526572 0.0
4041047.1305981786 -277678.8314351383 0.0
5223955.404489469 91948.61784910285 0.0
4789285.432220481 53894.121866095134 0.0
8194456.402585545 98802.66396368138 0.0
9459601.792598678 211367.4801174623 0.0
9246865.797395011 -274957.60335113667 0.0
4879327.279336813 -87409.78517708973 0.0
4902956.768908346 -404629.99322794477 0.0
9193723.356410367 -204228.7977740329 0.0
4997163.49096065 287927.7680832769 0.0
6618863.994621171 164042.86532237945 0.0
5041147.751717892 -476140.08199410536 0.0
5971723.631152391 552174.5441805882 0.0
7495401.680374216 1282242.9499517244 0.0
9048699.840171276 33098.14516914924 0.0
8442451.428799575 224171.59589235683 0.0
4949163.311738592 278881.54130086064 0.0
4837214.10238171 348592.67353795836 0.0
1178597.194398216 118364.28816626854 0.0
1238775.6141422866 43635.56616199635 0.0
1568730.8526093753 -146607.54904722038 0.0
1539229.0557798008 -36896.027756184885 0.0
4939933.7761991145 340414.0856791272 0.0
7892893.034371845 -363853.54010512104 0.0
6603922.009758693 -1458217.755389611 0.0
5352093.664452426 -61118.68244311184 0.0
5953904.038039128 1307972.9079064203 0.0
3675318.9234473645 526951.837110498 0.0
9472971.01449761 -332327.42247991107 0.0
8602075.45288557 51740.286454166 0.0
9302651.622413715 208810.04526111274 0.0
5044126.31853722 919133.9732890626 0.0
4671802.1076039625 228810.39424909136 0.0
8926481.505007535 -227152.44158668342 0.0
9618296.598761348 -213690.73829891192 0.0
7989606.32603559 403684.44377835136 0.0
7410167.802026825 -631453.0269471906 0.0
4732054.721856767 38088.70637368516 0.0
5446883.648211349 -3356273.8055196633 0.0
5891498.124148521 -3264884.1430682046 0.0
5729589.813891659 3370512.148370407 0.0
6238436.924771518 3121101.3801687225 0.0
6029252.020853615 -73739.04090933784 0.0
6376807.784442573 -68398.98153132742 0.0
6870683.907729016 -1540263.2066749006 0.0
6104859.045898318 -757973.9600002574 0.0
6748068.760146941 -4475.533805126196 0.0
6832032.282832395 151415.8535992095 0.0
7945512.565266734 -811808.4375749239 0.0
6724721.781264887 -1267613.952935153 0.0
3617864.7873834376 -1320484.49580846 0.0
3348664.566200727 -1229752.013987421 0.0
3356806.3178697694 1233466.2891150885 0.0
11155136.484787349 1435008.8126494845 0.0
11661981.924138319 -1060057.417217485 0.0
8445282.642718889 -1778302.571333613 0.0
3642414.5390814296 1419789.2377475884 0.0
6879880.735797244 1148135.56112989 0.0
6630023.739533504 -968142.2676631847 0.0
4001085.20186947 199438.21764841245 0.0
8891886.672578992 350689.15737292997 0.0
5293577.935676904 1140842.086008724 0.0
5200232.914259854 56255.79422920857 0.0
VECTORS principal_stress_2 float
930622.7061915367 4203061.241355501 0.0
-1085566.175397724 11687542.482087458 0.0
625718.2198076599 3937729.8221560623 0.0
-1334673.1929232043 7396738.960473909 0.0
1103393.648824278 11505272.20416288 0.0
-1040041.5980125663 7084105.121272027 0.0
-358676.4070823365 4409368.689669635 0.0
1262935.7349256675 6627349.59454589 0.0
1725089.0102582593 8278190.644702875 0.0
431655.5946726193 5590347.949701609 0.0
-1840218.1690526565 8822997.58861793 0.0
277678.8314351381 4041047.1305981786 0.0
-91948.61784910201 5223955.404489469 0.0
-53894.12186609438 4789285.432220481 0.0
-98802.663963681 8194456.402585545 0.0
-211367.48011746228 9459601.792598678 0.0
274957.60335113696 9246865.797395011 0.0
87409.78517709047 4879327.279336813 0.0
404629.9932279452 4902956.768908346 0.0
204228.79777403388 9193723.356410367 0.0
-287927.7680832767 4997163.49096065 0.0
-164042.86532237878 6618863.994621171 0.0
476140.08199410595 5041147.751717892 0.0
-552174.5441805875 5971723.631152391 0.0
-1282242.9499517246 7495401.680374216 0.0
-33098.1451691485 9048699.840171276 0.0
-224171.59589235656 8442451.428799575 0.0
-278881.5413008608 4949163.311738592 0.0
-348592.673537958 4837214.10238171 0.0
-118364.28816626858 1178597.194398216 0.0
-43635.56616199626 1238775.6141422866 0.0
146607.54904722035 1568730.8526093753 0.0
36896.02775618509 1539229.0557798008 0.0
-340414.08567912667 4939933.7761991145 0.0
363853.540105122 7892893.034371845 0.0
1458217.7553896108 6603922.009758693 0.0
61118.68244311207 5352093.664452426 0.0
-1307972.90790642 5953904.038039128 0.0
-526951.8371104978 3675318.9234473645 0.0
332327.4224799117 9472971.01449761 0.0
-51740.286454165325 8602075.45288557 0.0
-208810.045261112 9302651.622413715 0.0
-919133.9732890619 5044126.31853722 0.0
-228810.3942490911 4671802.1076039625 0.0
227152.44158668316 8926481.505007535 0.0
213690.7382989122 9618296.598761348 0.0
-403684.4437783509 7989606.32603559 0.0
631453.0269471918 7410167.802026825 0.0
-38088.706373685185 4732054.721856767 0.0
3356273.805519664 5446883.648211349 0.0
3264884.143068205 5891498.124148521 0.0
-3370512.148370407 5729589.813891659 0.0
-3121101.38016872 6238436.924771519 0.0
73739.04090933874 6029252.020853615 0.0
68398.98153132801 6376807.784442573 0.0
1540263.2066749015 6870683.907729016 0.0
757973.9600002571 6104859.045898318 0.0
4475.533805125932 6748068.760146941 0.0
-151415.8535992086 6832032.282832395 0.0
811808.4375749234 7945512.565266734 0.0
1267613.952935153 6724721.781264887 0.0
1320484.4958084603 3617864.7873834376 0.0
1229752.0139874213 3348664.566200727 0.0
-1233466.2891150883 3356806.3178697694 0.0
-1435008.8126494847 11155136.484787349 0.0
1060057.417217486 11661981.924138319 0.0
1778302.5713336128 8445282.642718889 0.0
-1419789.2377475882 3642414.5390814296 0.0
-1148135.56112989 6879880.735797244 0.0
968142.2676631844 6630023.739533504 0.0
-199438.21764841233 4001085.20186947 0.0
-350689.15737292863 8891886.672578992 0.0
-1140842.0860087243 5293577.935676904 0.0
-56255.7942292078 5200232.914259854 0.0
POINT_DATA 50
VECTORS displacements float
0.0 0.0 0.0
2.3511056274773475e-05 1.09842900101093e-06 0.0
3.0480442944090094e-05 5.206163971615884e-07 0.0
5.7222668621626925e-05 -4.2031640299594295e-07 0.0
6.383847724086986e-05 2.1848884145686318e-07 0.0
9.064978891757384e-05 6.574542174477183e-07 0.0
9.295675154866427e-05 -6.512121616407414e-06 0.0
6.488527291295581e-05 -2.324230172987914e-06 0.0
5.7965697174066577e-05 -1.5238591885449762e-06 0.0
3.063324461738062e-05 -1.0548028173047345e-06 0.0
2.384644872498648e-05 -1.6952352839251017e-06 0.0
0.0 0.0 0.0
1.4338905824242992e-05 3.301072140094698e-06 0.0
2.4669986858070885e-05 5.768434509050033e-07 0.0
4.351587295539764e-05 8.573675056491547e-07 0.0
6.288939752795458e-05 -3.8850099655609357e-07 0.0
7.372702918340307e-05 1.3499464078593857e-06 0.0
8.480554728730022e-05 -2.4188941821370767e-06 0.0
7.474578379099754e-05 -4.216366932734978e-06 0.0
6.357685038924283e-05 -1.844565123783395e-06 0.0
4.4182439060653684e-05 -2.1285770080178684e-06 0.0
2.5029813648915154e-05 -1.2217566895708233e-06 0.0
1.4697242536174687e-05 -3.5593641512222892e-06 0.0
0.0 0.0 0.0
3.823736962866547e-05 -5.073110238918787e-07 0.0
3.0756169022503616e-05 -8.849464810637736e-07 0.0
4.9390691861870135e-05 -7.441325058348956e-07 0.0
2.4327367909120045e-05 -2.2236602748625494e-06 0.0
6.386838037569484e-05 5.476118443730017e-07 0.0
6.362832331515805e-05 -2.8026552659226223e-06 0.0
2.42308927194473e-05 1.640936665613572e-06 0.0
3.5168145384116346e-05 -3.558303775103895e-07 0.0
2.856077413786108e-05 3.235022532087148e-07 0.0
4.973173778182106e-05 -8.133943032461124e-07 0.0
5.62538211208961e-05 -1.3328710948327286e-06 0.0
4.223912798064391e-05 -1.356445209315688e-07 0.0
1.973233096057927e-05 1.088137442828092e-06 0.0
2.1256625885922745e-05 -1.2647648023976588e-06 0.0
1.0431213328824643e-05 -3.7385597313750615e-07 0.0
5.324423060635415e-05 -8.559841232739588e-07 0.0
5.7870720900188686e-05 -8.706562784417779e-07 0.0
6.185015570272415e-05 -1.6759017499441345e-06 0.0
6.552076225310865e-05 -1.9726756955431608e-07 0.0
7.615810987483411e-05 -1.8060781195584788e-06 0.0
7.064956977038969e-05 -2.491815987367482e-06 0.0
5.518300717797337e-05 -5.810659652989502e-07 0.0
5.95055142353355e-05 -2.495338091811461e-07 0.0
5.861973596413501e-06 5.755832862606213e-07 0.0
4.4287699391476616e-05 -8.227843238872561e-07 0.0
8.093492351418607e-05 -3.0679957212213934e-06 0.0