# vtk DataFile Version 2.0
Really cool data
ASCII
DATASET POLYDATA
POINTS 50 float
0.0 0.0 0
0.125 0.0 0
0.125 0.025 0
0.175 0.025 0
0.175 0.0 0
0.3 0.0 0
0.3 0.1 0
0.175 0.1 0
0.175 0.07500000000000001 0
0.125 0.07500000000000001 0
0.125 0.1 0
0.0 0.1 0
0.06250000013078053 0.0 0
0.125 0.01250000001946666 0
0.1500000000542101 0.025 0
0.175 0.01249999996954492 0
0.2375000000379471 0.0 0
0.3 0.05000000007786663 0
0.2374999999024218 0.09999999999999999 0
0.175 0.08749999992410586 0
0.1499999998970008 0.07500000000000002 0
0.125 0.08749999998373698 0
0.06249999984482352 0.1 0
0.0 0.05000000007786663 0
0.1368030376589693 0.05881183609165548 0
0.117775623603241 0.06013038045187373 0
0.162500000027105 0.041237976310672 0
0.107309198575727 0.08007003580073291 0
0.19212308841714 0.01780898906300205 0
0.1901864428630649 0.07906464689515667 0
0.1094436020031466 0.01874551931480652 0
0.1291338851563814 0.04361389724778988 0
0.1114151539582876 0.04074826126195277 0
0.1624999999485004 0.06043297861285827 0
0.1787552186679302 0.06017424107710374 0
0.1459442698801169 0.044214050543324 0
0.08315066519904095 0.03531547250623295 0
0.08792340551106274 0.06122065477279754 0
0.04632429568687593 0.05307658962797577 0
0.172304892364689 0.04902546201312089 0
0.1850949657786914 0.04563198790008897 0
0.1965712954394372 0.05628532213281995 0
0.2087061817377232 0.03693437174515411 0
0.253205755539793 0.04383466385996593 0
0.2266612590318197 0.06518650077867166 0
0.1762118450318149 0.03854480335931212 0
0.1861593669885893 0.03182859057267874 0
0.02720607395441411 0.0257691474264606 0
0.1502126267551182 0.05641628411908355 0
0.2685302890076256 0.07336950662279432 0
POLYGONS 74 296
3 5 17 43
3 8 20 33
3 28 16 42
3 2 31 32
3 20 9 24
3 30 2 32
3 18 29 44
3 25 27 37
3 24 9 25
3 16 5 43
3 8 33 34
3 27 22 37
3 12 36 38
3 42 43 44
3 33 26 39
3 26 33 48
3 35 26 48
3 11 23 38
3 22 11 38
3 14 26 35
3 44 43 49
3 32 25 37
3 42 16 43
3 6 18 49
3 29 34 41
3 24 31 35
3 24 25 31
3 12 38 47
3 0 12 47
3 7 19 29
3 1 13 30
3 21 10 27
3 15 4 28
3 18 44 49
3 31 25 32
3 28 42 46
3 37 22 38
3 30 32 36
3 43 17 49
3 20 24 48
3 34 33 39
3 33 20 48
3 17 6 49
3 23 0 47
3 39 26 45
3 24 35 48
3 34 39 40
3 40 39 45
3 38 23 47
3 3 15 28
3 9 21 27
3 13 2 30
3 19 8 29
3 41 42 44
3 36 32 37
3 45 3 46
3 42 40 46
3 34 40 41
3 41 40 42
3 40 45 46
3 3 28 46
3 4 16 28
3 10 22 27
3 12 1 30
3 2 14 31
3 14 3 26
3 26 3 45
3 18 7 29
3 29 8 34
3 25 9 27
3 12 30 36
3 31 14 35
3 29 41 44
3 36 37 38
CELL_DATA 74
SCALARS mises double 1
LOOKUP_TABLE default
1964824.6208820369 5104056.497086766 1780866.9579192407 3181724.6141333305 5009858.128155842 3131697.213605366 2018476.4578412334 2951426.835449301 3459432.704638346 2603639.504320645 3684899.4528013323 1918154.1451899188 2457190.473708872 2269617.961644433 3424957.415823117 3951540.8981960975 3994151.1213238263 2032521.140115597 2226933.384796951 4058169.3245471185 2229387.227072703 3017675.6833937108 2350356.7903899373 2846295.4715830013 3300806.145782956 3824867.249303295 3580151.2092569238 2300868.3744152253 2134922.5232392056 695266.8089769081 744595.7161206135 837539.5226358436 902294.4305972153 2243812.9479905404 3479558.239460012 2878680.8414790663 2498476.162979384 2648752.0132005303 1669642.2446265316 4210550.520517219 3664340.9448186546 4138698.89531633 2421573.8757474693 1944854.1299514312 3796503.6216933657 4165890.816496146 3453494.3458925528 3180914.9722502762 2083752.7030123181 1788196.749192804 2078443.7618137917 1945480.9601665924 2325599.0625002966 2843919.7577849403 3037688.6539684692 2854143.1304222713 2690451.59239365 2975211.009486497 3155130.756867225 3457128.400508319 2902497.61900619 1426757.4157492404 1321283.8069084077 1325043.9663243648 4791962.192058422 5053135.902086653 3503007.6637292597 1422932.4694831907 2945990.224167279 2874999.179356858 1898074.1900541848 3876544.283600072 2360405.9722244213 2574345.6154776243
VECTORS principal_stress_1 float
68728.7005582198 310406.07064827904 0.0
-33168.09100323057 357097.96549986413 0.0
11963.23447831631 75286.26094536917 0.0
-32437.60741587501 179768.73726822904 0.0
-36430.738512400574 -379869.4723596337 0.0
-6638.462217579652 45217.00313025238 0.0
4483.098191408404 -55112.72112573737 0.0
19232.097734351883 100921.86925847457 0.0
-82475.87996888577 -395777.29259886337 0.0
11752.900153318227 152211.16576742413 0.0
-89255.54002941956 427939.15835303883 0.0
11791.411448126339 171599.86287713685 0.0
2803.045214153597 -159251.80321401768 0.0
1977.8452351823157 -175760.64038265558 0.0
-8564.416395558772 710312.1915093047 0.0
-18406.630971911378 823775.7257684121 0.0
-13388.755963894544 -450265.8885708145 0.0
-7934.102549186528 -442891.8676195134 0.0
2251.0079797490785 27275.770446804385 0.0
-5541.7561004189965 -249472.02868188787 0.0
-4134.338351342376 71753.984709912 0.0
541.0705039354212 -21831.31872277276 0.0
14748.116949213312 156146.14146582087 0.0
27430.753215351386 -296661.4070185208 0.0
-3645.1906126450567 21308.105335523607 0.0
-2424.9378364051718 662953.6036101847 0.0
-15460.889672207419 582267.3902286501 0.0
6421.002958203108 -113950.14570369401 0.0
-8042.068092169214 111595.01659325328 0.0
26454.326705338975 -263415.55985878553 0.0
9965.291294466322 -282905.9166455817 0.0
20905.137942617606 223689.2648554993 0.0
7664.452718405361 319745.7568813953 0.0
1256.6971432055673 -18236.615126513334 0.0
-9799.61025180751 -212578.04850188736 0.0
8796.889262041968 39839.02294447553 0.0
1453.1451267828447 127250.26973255494 0.0
34432.69950617029 -156737.94723968566 0.0
9875.267333331401 -68876.80115760563 0.0
-6569.964870585852 -187276.41047765818 0.0
-3334.3674394759405 554354.8802617983 0.0
-4077.300190260718 181646.92786960318 0.0
74165.1049188949 -407011.5657892477 0.0
-20561.329201239663 419816.8593377688 0.0
-14924.81584941682 -586505.2196439125 0.0
-9871.136995985498 -444303.408515473 0.0
-18777.987457577558 371648.5232303192 0.0
-31444.545219286887 -369005.0511909491 0.0
-1137.450646023586 141314.29530811048 0.0
315491.0786705111 512009.23915708263 0.0
254588.19025813087 459405.5346560004 0.0
271585.3975373457 -461672.54673270683 0.0
217973.4454162821 -435683.8900347069 0.0
2413.7287113050834 197357.85183754266 0.0
2811.1690417603418 262084.08703674 0.0
-75176.03870770826 -335339.3089944023 0.0
-11525.367950377838 -92827.39315892305 0.0
-128.4306499517634 -193643.68464637376 0.0
2220.317760425584 -100182.92177994535 0.0
-26543.23203657312 -259789.83945940752 0.0
-22471.18761016349 -119210.17784874918 0.0
-45237.029377537234 -123940.45987690476 0.0
-37568.043670205705 -102299.30524934766 0.0
-36278.67560386539 98730.29246577187 0.0
-58446.73902396907 454339.6146113959 0.0
-41296.53108855796 -454314.44680469576 0.0
-100862.98255586304 -479005.3220431915 0.0
-35626.23426980748 91397.73018911786 0.0
-38807.72618150462 232544.4283717483 0.0
-25434.20113427101 -174178.28241639317 0.0
7942.939941091996 -159349.495961034 0.0
-13519.361971287932 342789.7099380065 0.0
30491.775381692794 -141483.72624018815 0.0
4108.123273090645 -379751.0665927428 0.0
VECTORS principal_stress_2 float
-310406.07064827904 68728.70055821975 0.0
-357097.96549986413 -33168.09100323055 0.0
-75286.26094536917 11963.234478316315 0.0
-179768.73726822904 -32437.607415874994 0.0
379869.4723596337 -36430.738512400596 0.0
-45217.00313025238 -6638.462217579649 0.0
55112.72112573737 4483.0981914084 0.0
-100921.86925847457 19232.097734351886 0.0
395777.29259886337 -82475.8799688858 0.0
-152211.16576742413 11752.900153318236 0.0
-427939.15835303883 -89255.54002941954 0.0
-171599.86287713685 11791.41144812635 0.0
159251.80321401768 2803.045214153588 0.0
175760.64038265558 1977.845235182305 0.0
-710312.1915093047 -8564.41639555873 0.0
-823775.7257684121 -18406.630971911323 0.0
450265.8885708145 -13388.755963894471 0.0
442891.8676195134 -7934.102549186556 0.0
-27275.770446804385 2251.0079797490744 0.0
249472.02868188787 -5541.756100418957 0.0
-71753.984709912 -4134.338351342371 0.0
21831.31872277276 541.0705039354199 0.0
-156146.14146582087 14748.116949213323 0.0
296661.4070185208 27430.753215351364 0.0
-21308.105335523607 -3645.1906126450554 0.0
-662953.6036101847 -2424.9378364051313 0.0
-582267.3902286501 -15460.889672207382 0.0
113950.14570369401 6421.002958203102 0.0
-111595.01659325328 -8042.068092169207 0.0
263415.55985878553 26454.32670533896 0.0
282905.9166455817 9965.291294466304 0.0
-223689.2648554993 20905.13794261757 0.0
-319745.7568813953 7664.452718405452 0.0
18236.615126513334 1256.6971432055664 0.0
212578.04850188736 -9799.610251807475 0.0
-39839.02294447553 8796.88926204197 0.0
-127250.26973255494 1453.1451267828243 0.0
156737.94723968566 34432.699506170284 0.0
68876.80115760563 9875.267333331396 0.0
187276.41047765818 -6569.964870585863 0.0
-554354.8802617983 -3334.367439475907 0.0
-181646.92786960318 -4077.3001902607066 0.0
407011.5657892477 74165.10491889487 0.0
-419816.8593377688 -20561.329201239634 0.0
586505.2196439125 -14924.815849416726 0.0
444303.408515473 -9871.136995985526 0.0
-371648.5232303192 -18777.987457577536 0.0
369005.0511909491 -31444.54521928691 0.0
-141314.29530811048 -1137.4506460235775 0.0
-512009.2391570826 315491.07867051126 0.0
-459405.53465600044 254588.19025813078 0.0
461672.54673270683 271585.39753734565 0.0
435683.8900347069 217973.44541628208 0.0
-197357.85183754266 2413.7287113050957 0.0
-262084.08703674 2811.169041760416 0.0
335339.3089944023 -75176.03870770821 0.0
92827.39315892305 -11525.367950377824 0.0
193643.68464637376 -128.43064995181825 0.0
100182.92177994535 2220.3177604255775 0.0
259789.83945940752 -26543.23203657319 0.0
119210.17784874918 -22471.187610163524 0.0
123940.45987690476 -45237.02937753724 0.0
102299.30524934766 -37568.04367020571 0.0
-98730.29246577188 -36278.675603865384 0.0
-454339.6146113959 -58446.73902396905 0.0
454314.44680469576 -41296.53108855809 0.0
479005.3220431915 -100862.98255586317 0.0
-91397.73018911786 -35626.23426980748 0.0
-232544.4283717483 -38807.72618150461 0.0
174178.28241639317 -25434.201134271025 0.0
159349.495961034 7942.939941091988 0.0
-342789.7099380065 -13519.36197128791 0.0
141483.72624018815 30491.77538169278 0.0
379751.0665927428 4108.123273090621 0.0
POINT_DATA 50
VECTORS displacements float
0.0 0.0 0.0
-1.0686843761260678e-05 -4.992859095504282e-07 0.0
-1.3854746792768236e-05 -2.3664381689163691e-07 0.0
-2.6010303918921357e-05 1.9105291045267e-07 0.0
-2.901748965494089e-05 -9.931310975314755e-08 0.0
-4.120444950798817e-05 -2.988428261127503e-07 0.0
-4.2253068885756444e-05 2.960055280185044e-06 0.0
-2.949330586952534e-05 1.0564682604490207e-06 0.0
-2.6348044170030246e-05 6.926632675204141e-07 0.0
-1.3924202098809368e-05 4.794558260475976e-07 0.0
-1.0839294874993852e-05 7.705614926932206e-07 0.0
0.0 0.0 0.0
-6.517684465565002e-06 -1.5004873364066837e-06 0.0
-1.1213630390032232e-05 -2.6220156859318853e-07 0.0
-1.977994225245349e-05 -3.897125025678122e-07 0.0
-2.858608978543393e-05 1.765913620709206e-07 0.0
-3.3512285992455995e-05 -6.136120035725362e-07 0.0
-3.854797603968194e-05 1.0994973555167086e-06 0.0
-3.397535626863519e-05 1.9165304239703577e-06 0.0
-2.889856835874672e-05 8.384386926287861e-07 0.0
-2.0082926845751676e-05 9.675350036444653e-07 0.0
-1.137718802223416e-05 5.553439498049119e-07 0.0
-6.6805647891703105e-06 1.61789279601013e-06 0.0
0.0 0.0 0.0
-1.7380622558484307e-05 2.305959199508413e-07 0.0
-1.3980076828410738e-05 4.022484004835269e-07 0.0
-2.2450314482668253e-05 3.3824204810674903e-07 0.0
-1.1057894504145474e-05 1.0107546703920626e-06 0.0
-2.9031081988952232e-05 -2.489144747150434e-07 0.0
-2.8921965143253644e-05 1.2739342117829658e-06 0.0
-1.1014042145203328e-05 -7.458803025516282e-07 0.0
-1.5985520629143797e-05 1.6174108068653332e-07 0.0
-1.2982170062664137e-05 -1.4704647873123822e-07 0.0
-2.26053353553732e-05 3.697246832936636e-07 0.0
-2.5569918691316406e-05 6.058504976512068e-07 0.0
-1.9199603627565416e-05 6.165660042342671e-08 0.0
-8.969241345717854e-06 -4.946079285582261e-07 0.0
-9.66210267541943e-06 5.748930919989332e-07 0.0
-4.741460604011201e-06 1.6993453324432024e-07 0.0
-2.4201923002888246e-05 3.890836923972255e-07 0.0
-2.6304873136449414e-05 3.9575285383713183e-07 0.0
-2.8113707137601882e-05 7.61773522701829e-07 0.0
-2.978216466050394e-05 8.966707707008445e-08 0.0
-3.461732267037915e-05 8.209445997992077e-07 0.0
-3.211344080472257e-05 1.1326436306215067e-06 0.0
-2.5083185080897003e-05 2.641208933176722e-07 0.0
-2.704796101606161e-05 1.1342445871866241e-07 0.0
-2.664533452915228e-06 -2.61628766482101e-07 0.0
-2.0130772450671185e-05 3.7399287449419055e-07 0.0
-3.6788601597357285e-05 1.394543509645975e-06 0.0