# vtk DataFile Version 2.0
Really cool data
ASCII
DATASET POLYDATA
POINTS 50 float
0.0 0.0 0
0.125 0.0 0
0.125 0.025 0
0.175 0.025 0
0.175 0.0 0
0.3 0.0 0
0.3 0.1 0
0.175 0.1 0
0.175 0.07500000000000001 0
0.125 0.07500000000000001 0
0.125 0.1 0
0.0 0.1 0
0.06250000013078053 0.0 0
0.125 0.01250000001946666 0
0.1500000000542101 0.025 0
0.175 0.01249999996954492 0
0.2375000000379471 0.0 0
0.3 0.05000000007786663 0
0.2374999999024218 0.09999999999999999 0
0.175 0.08749999992410586 0
0.1499999998970008 0.07500000000000002 0
0.125 0.08749999998373698 0
0.06249999984482352 0.1 0
0.0 0.05000000007786663 0
0.1368030376589693 0.05881183609165548 0
0.117775623603241 0.06013038045187373 0
0.162500000027105 0.041237976310672 0
0.107309198575727 0.08007003580073291 0
0.19212308841714 0.01780898906300205 0
0.1901864428630649 0.07906464689515667 0
0.1094436020031466 0.01874551931480652 0
0.1291338851563814 0.04361389724778988 0
0.1114151539582876 0.04074826126195277 0
0.1624999999485004 0.06043297861285827 0
0.1787552186679302 0.06017424107710374 0
0.1459442698801169 0.044214050543324 0
0.08315066519904095 0.03531547250623295 0
0.08792340551106274 0.06122065477279754 0
0.04632429568687593 0.05307658962797577 0
0.172304892364689 0.04902546201312089 0
0.1850949657786914 0.04563198790008897 0
0.1965712954394372 0.05628532213281995 0
0.2087061817377232 0.03693437174515411 0
0.253205755539793 0.04383466385996593 0
0.2266612590318197 0.06518650077867166 0
0.1762118450318149 0.03854480335931212 0
0.1861593669885893 0.03182859057267874 0
0.02720607395441411 0.0257691474264606 0
0.1502126267551182 0.05641628411908355 0
0.2685302890076256 0.07336950662279432 0
POLYGONS 74 296
3 5 17 43
3 8 20 33
3 28 16 42
3 2 31 32
3 20 9 24
3 30 2 32
3 18 29 44
3 25 27 37
3 24 9 25
3 16 5 43
3 8 33 34
3 27 22 37
3 12 36 38
3 42 43 44
3 33 26 39
3 26 33 48
3 35 26 48
3 11 23 38
3 22 11 38
3 14 26 35
3 44 43 49
3 32 25 37
3 42 16 43
3 6 18 49
3 29 34 41
3 24 31 35
3 24 25 31
3 12 38 47
3 0 12 47
3 7 19 29
3 1 13 30
3 21 10 27
3 15 4 28
3 18 44 49
3 31 25 32
3 28 42 46
3 37 22 38
3 30 32 36
3 43 17 49
3 20 24 48
3 34 33 39
3 33 20 48
3 17 6 49
3 23 0 47
3 39 26 45
3 24 35 48
3 34 39 40
3 40 39 45
3 38 23 47
3 3 15 28
3 9 21 27
3 13 2 30
3 19 8 29
3 41 42 44
3 36 32 37
3 45 3 46
3 42 40 46
3 34 40 41
3 41 40 42
3 40 45 46
3 3 28 46
3 4 16 28
3 10 22 27
3 12 1 30
3 2 14 31
3 14 3 26
3 26 3 45
3 18 7 29
3 29 8 34
3 25 9 27
3 12 30 36
3 31 14 35
3 29 41 44
3 36 37 38
CELL_DATA 74
SCALARS mises double 1
LOOKUP_TABLE default
392965.21740011865 1020811.1916681291 356173.588819077 636344.709694632 1001971.7365295254 626339.2660126976 403695.19230544183 590285.604048807 691886.7791976524 520727.9964270318 736979.6523556487 383630.9151735299 491438.07296521333 453923.57833173027 684991.4704310695 790308.1560585118 798830.257776564 406504.24679341365 445386.7769406121 811633.8907145492 445877.3773068207 603535.1068214773 470071.4755841111 569258.9774334795 660161.0216076128 764973.445901436 716030.2128900916 460173.6055312786 426984.4203243416 139053.2239698013 148919.09522840072 167508.02941451757 180458.91860775842 448762.50637121045 695911.7014930481 575736.4416814881 499695.2466360153 529750.124327767 333928.27149255073 842110.1452569588 732868.1823540033 827739.7527322437 484314.5353134108 388970.7745662744 759300.752247843 833178.1884288831 690698.8120172387 636183.0905192482 416750.5312874964 357640.40167043195 415689.6303614782 389095.23313528125 465119.05723971146 568783.9667172425 607537.7441853225 570828.8824729861 538090.4658758875 595042.2026660129 631026.1243590617 691425.7983571346 580499.7487664013 285351.9216340308 264257.2059029938 265008.347504017 958392.29092053 1010627.2846074199 700601.7698936325 284586.0148012959 589197.8507461712 575000.0071184274 379614.77575336123 775308.8115958626 472080.9215765816 514869.109261857
VECTORS principal_stress_1 float
13745.740111644023 62081.21412965589 0.0
-6633.618200646209 71419.59309997367 0.0
2392.646895663296 15057.252189073943 0.0
-6487.521483174996 35953.74745364574 0.0
-7286.14770248009 -75973.89447192683 0.0
-1327.6924435159003 9043.400626050256 0.0
896.6196382816737 -11022.54422514751 0.0
3846.419546870326 20184.373851694676 0.0
-16495.17599377726 -79155.45851977299 0.0
2350.5800306636484 30442.233153484685 0.0
-17851.10800588404 85587.83167060801 0.0
2358.2822896252533 34319.97257542739 0.0
560.609042830725 -31850.360642803447 0.0
395.5690470364336 -35152.12807653126 0.0
-1712.8832791120788 142062.43830186164 0.0
-3681.3261943825005 164755.14515368268 0.0
-2677.751192778863 -90053.17771416203 0.0
-1586.820509837327 -88578.37352390277 0.0
450.2015959498174 5455.154089360912 0.0
-1108.3512200837529 -49894.40573637748 0.0
-826.8676702684805 14350.796941982602 0.0
108.21410078708986 -4366.2637445546225 0.0
2949.6233898426512 31229.228293163833 0.0
5486.150643070344 -59332.28140370446 0.0
-729.0381225290369 4261.621067104858 0.0
-484.9875672808584 132590.72072203713 0.0
-3092.17793444144 116453.47804572935 0.0
1284.200591640618 -22790.029140738738 0.0
-1608.413618433854 22319.003318650815 0.0
5290.86534106776 -52683.11197175722 0.0
1993.0582588932712 -56581.183329116524 0.0
4181.02758852345 44737.85297109985 0.0
1532.8905436809482 63949.151376279806 0.0
251.33942864111788 -3647.3230253027077 0.0
-1959.9220503614608 -42515.609700377405 0.0
1759.3778524083402 7967.804588894856 0.0
290.6290253565632 25450.05394651098 0.0
6886.539901234087 -31347.58944793729 0.0
1975.0534666663386 -13775.360231521337 0.0
-1313.9929741171982 -37455.282095531715 0.0
-666.8734878952091 110870.97605235907 0.0
-815.4600380521191 36329.38557392063 0.0
14833.020983779086 -81402.31315784971 0.0
-4112.265840247915 83963.37186755378 0.0
-2984.9631698831427 -117301.04392878406 0.0
-1974.2273991972208 -88860.68170309473 0.0
-3755.5974915154807 74329.70464606355 0.0
-6288.909043857168 -73801.01023818969 0.0
-227.4901292047171 28262.859061622083 0.0
63098.215734102916 102401.84783141762 0.0
50917.638051626396 91881.10693120038 0.0
54317.079507468945 -92334.50934654119 0.0
43594.689083256155 -87136.77800694089 0.0
482.7457422610104 39471.570367508735 0.0
562.2338083520577 52416.81740734809 0.0
-15035.207741541812 -67067.861798882 0.0
-2305.0735900755517 -18565.47863178445 0.0
-25.686129990283984 -38728.736929274906 0.0
444.0635520851039 -20036.584355989093 0.0
-5308.646407314635 -51957.96789188093 0.0
-4494.237522032863 -23842.03556975086 0.0
-9047.405875507593 -24788.091975381405 0.0
-7513.608734041176 -20459.861049869643 0.0
-7255.735120773076 19746.05849315434 0.0
-11689.347804793802 90867.92292227891 0.0
-8259.306217711584 -90862.8893609395 0.0
-20172.596511172724 -95801.06440863949 0.0
-7125.246853961588 18279.546037823882 0.0
-7761.545236300972 46508.88567435007 0.0
-5086.840226854249 -34835.6564832789 0.0
1588.5879882184008 -31869.899192206693 0.0
-2703.8723942577703 68557.94198760208 0.0
6098.355076338472 -28296.745248037198 0.0
821.6246546181634 -75950.21331854862 0.0
VECTORS principal_stress_2 float
-62081.21412965589 13745.740111644029 0.0
-71419.59309997367 -6633.618200646204 0.0
-15057.252189073943 2392.6468956632934 0.0
-35953.74745364574 -6487.5214831749945 0.0
75973.89447192683 -7286.147702480095 0.0
-9043.400626050257 -1327.6924435158996 0.0
11022.54422514751 896.6196382816731 0.0
-20184.373851694676 3846.419546870323 0.0
79155.45851977299 -16495.175993777262 0.0
-30442.233153484685 2350.58003066365 0.0
-85587.83167060801 -17851.108005884038 0.0
-34319.97257542739 2358.282289625256 0.0
31850.360642803447 560.6090428307231 0.0
35152.12807653126 395.5690470364314 0.0
-142062.43830186164 -1712.88327911207 0.0
-164755.14515368268 -3681.32619438249 0.0
90053.17771416203 -2677.7511927788682 0.0
88578.37352390277 -1586.8205098373523 0.0
-5455.154089360912 450.2015959498178 0.0
49894.405736377485 -1108.351220083745 0.0
-14350.796941982602 -826.8676702684796 0.0
4366.2637445546225 108.21410078708958 0.0
-31229.228293163833 2949.623389842646 0.0
59332.28140370446 5486.15064307034 0.0
-4261.621067104858 -729.0381225290365 0.0
-132590.72072203713 -484.98756728085027 0.0
-116453.47804572935 -3092.1779344414326 0.0
22790.029140738738 1284.200591640617 0.0
-22319.003318650815 -1608.413618433853 0.0
52683.11197175723 5290.865341067757 0.0
56581.183329116524 1993.0582588932675 0.0
-44737.85297109985 4181.027588523453 0.0
-63949.151376279806 1532.8905436809378 0.0
3647.3230253027077 251.33942864111768 0.0
42515.609700377405 -1959.922050361454 0.0
-7967.804588894855 1759.3778524083425 0.0
-25450.05394651098 290.6290253565648 0.0
31347.58944793729 6886.539901234085 0.0
13775.360231521337 1975.0534666663377 0.0
37455.282095531715 -1313.992974117192 0.0
-110870.97605235907 -666.8734878952024 0.0
-36329.38557392063 -815.4600380521168 0.0
81402.31315784971 14833.02098377908 0.0
-83963.37186755378 -4112.265840247909 0.0
117301.04392878406 -2984.9631698831763 0.0
88860.68170309473 -1974.2273991972263 0.0
-74329.70464606356 -3755.597491515476 0.0
73801.01023818969 -6288.909043857173 0.0
-28262.859061622083 -227.4901292047154 0.0
-102401.84783141762 63098.21573410292 0.0
-91881.10693120037 50917.63805162642 0.0
92334.50934654119 54317.079507468945 0.0
87136.7780069409 43594.689083256155 0.0
-39471.570367508735 482.7457422610041 0.0
-52416.81740734809 562.2338083520609 0.0
67067.861798882 -15035.2077415418 0.0
18565.47863178445 -2305.073590075553 0.0
38728.736929274906 -25.686129990294955 0.0
20036.584355989093 444.06355208510263 0.0
51957.96789188093 -5308.646407314627 0.0
23842.03556975086 -4494.237522032865 0.0
24788.09197538141 -9047.40587550759 0.0
20459.861049869647 -7513.608734041173 0.0
-19746.05849315434 -7255.735120773075 0.0
-90867.92292227891 -11689.347804793797 0.0
90862.8893609395 -8259.30621771157 0.0
95801.06440863949 -20172.596511172706 0.0
-18279.546037823882 -7125.2468539615875 0.0
-46508.88567435007 -7761.54523630097 0.0
34835.6564832789 -5086.840226854244 0.0
31869.899192206693 1588.587988218399 0.0
-68557.94198760208 -2703.8723942577662 0.0
28296.745248037198 6098.355076338471 0.0
75950.21331854862 821.6246546181586 0.0
POINT_DATA 50
VECTORS displacements float
0.0 0.0 0.0
-2.137368752252135e-06 -9.985718191008282e-08 0.0
-2.770949358553647e-06 -4.7328763378324315e-08 0.0
-5.202060783784269e-06 3.821058209054269e-08 0.0
-5.803497930988173e-06 -1.9862621950621433e-08 0.0
-8.24088990159763e-06 -5.976856522251814e-08 0.0
-8.450613777151303e-06 5.920110560370403e-07 0.0
-5.8986611739050806e-06 2.1129365208981233e-07 0.0
-5.269608834006056e-06 1.38532653504091e-07 0.0
-2.784840419761877e-06 9.589116520952264e-08 0.0
-2.167858974998774e-06 1.5411229853864712e-07 0.0
0.0 0.0 0.0
-1.3035368931129993e-06 -3.0009746728133566e-07 0.0
-2.242726078006446e-06 -5.2440313718634805e-08 0.0
-3.955988450490696e-06 -7.794250051355655e-08 0.0
-5.7172179570867835e-06 3.5318272414192546e-08 0.0
-6.702457198491195e-06 -1.2272240071448727e-07 0.0
-7.70959520793639e-06 2.1989947110337316e-07 0.0
-6.795071253727052e-06 3.833060847940913e-07 0.0
-5.779713671749354e-06 1.676877385257652e-07 0.0
-4.0165853691503394e-06 1.935070007288988e-07 0.0
-2.2754376044468348e-06 1.1106878996098539e-07 0.0
-1.3361129578340641e-06 3.235785592020273e-07 0.0
0.0 0.0 0.0
-3.4761245116968635e-06 4.6119183990172396e-08 0.0
-2.7960153656821505e-06 8.044968009670838e-08 0.0
-4.49006289653365e-06 6.764840962135685e-08 0.0
-2.2115789008290977e-06 2.0215093407841505e-07 0.0
-5.806216397790446e-06 -4.9782894942997574e-08 0.0
-5.784393028650738e-06 2.547868423566041e-07 0.0
-2.202808429040665e-06 -1.491760605103233e-07 0.0
-3.197104125828761e-06 3.234821613731008e-08 0.0
-2.596434012532828e-06 -2.9409295746245113e-08 0.0
-4.521067071074644e-06 7.394493665873989e-08 0.0
-5.1139837382632855e-06 1.211700995302502e-07 0.0
-3.839920725513086e-06 1.2331320084690185e-08 0.0
-1.7938482691435708e-06 -9.892158571164372e-08 0.0
-1.9324205350838876e-06 1.149786183997884e-07 0.0
-9.482921208022408e-07 3.398690664886459e-08 0.0
-4.840384600577652e-06 7.781673847945297e-08 0.0
-5.260974627289884e-06 7.915057076743649e-08 0.0
-5.622741427520381e-06 1.5235470454037825e-07 0.0
-5.95643293210079e-06 1.793341541403104e-08 0.0
-6.9234645340758325e-06 1.6418891995986402e-07 0.0
-6.42268816094452e-06 2.2652872612431893e-07 0.0
-5.0166370161794016e-06 5.282417866354305e-08 0.0
-5.409592203212322e-06 2.2684891743742632e-08 0.0
-5.329066905830455e-07 -5.232575329641998e-08 0.0
-4.02615449013424e-06 7.479857489884357e-08 0.0
-7.357720319471467e-06 2.7890870192922024e-07 0.0