# vtk DataFile Version 2.0
Really cool data
ASCII
DATASET POLYDATA
POINTS 50 float
0.0 0.0 0
0.125 0.0 0
0.125 0.025 0
0.175 0.025 0
0.175 0.0 0
0.3 0.0 0
0.3 0.1 0
0.175 0.1 0
0.175 0.07500000000000001 0
0.125 0.07500000000000001 0
0.125 0.1 0
0.0 0.1 0
0.06250000013078053 0.0 0
0.125 0.01250000001946666 0
0.1500000000542101 0.025 0
0.175 0.01249999996954492 0
0.2375000000379471 0.0 0
0.3 0.05000000007786663 0
0.2374999999024218 0.09999999999999999 0
0.175 0.08749999992410586 0
0.1499999998970008 0.07500000000000002 0
0.125 0.08749999998373698 0
0.06249999984482352 0.1 0
0.0 0.05000000007786663 0
0.1368030376589693 0.05881183609165548 0
0.117775623603241 0.06013038045187373 0
0.162500000027105 0.041237976310672 0
0.107309198575727 0.08007003580073291 0
0.19212308841714 0.01780898906300205 0
0.1901864428630649 0.07906464689515667 0
0.1094436020031466 0.01874551931480652 0
0.1291338851563814 0.04361389724778988 0
0.1114151539582876 0.04074826126195277 0
0.1624999999485004 0.06043297861285827 0
0.1787552186679302 0.06017424107710374 0
0.1459442698801169 0.044214050543324 0
0.08315066519904095 0.03531547250623295 0
0.08792340551106274 0.06122065477279754 0
0.04632429568687593 0.05307658962797577 0
0.172304892364689 0.04902546201312089 0
0.1850949657786914 0.04563198790008897 0
0.1965712954394372 0.05628532213281995 0
0.2087061817377232 0.03693437174515411 0
0.253205755539793 0.04383466385996593 0
0.2266612590318197 0.06518650077867166 0
0.1762118450318149 0.03854480335931212 0
0.1861593669885893 0.03182859057267874 0
0.02720607395441411 0.0257691474264606 0
0.1502126267551182 0.05641628411908355 0
0.2685302890076256 0.07336950662279432 0
POLYGONS 74 296
3 5 17 43
3 8 20 33
3 28 16 42
3 2 31 32
3 20 9 24
3 30 2 32
3 18 29 44
3 25 27 37
3 24 9 25
3 16 5 43
3 8 33 34
3 27 22 37
3 12 36 38
3 42 43 44
3 33 26 39
3 26 33 48
3 35 26 48
3 11 23 38
3 22 11 38
3 14 26 35
3 44 43 49
3 32 25 37
3 42 16 43
3 6 18 49
3 29 34 41
3 24 31 35
3 24 25 31
3 12 38 47
3 0 12 47
3 7 19 29
3 1 13 30
3 21 10 27
3 15 4 28
3 18 44 49
3 31 25 32
3 28 42 46
3 37 22 38
3 30 32 36
3 43 17 49
3 20 24 48
3 34 33 39
3 33 20 48
3 17 6 49
3 23 0 47
3 39 26 45
3 24 35 48
3 34 39 40
3 40 39 45
3 38 23 47
3 3 15 28
3 9 21 27
3 13 2 30
3 19 8 29
3 41 42 44
3 36 32 37
3 45 3 46
3 42 40 46
3 34 40 41
3 41 40 42
3 40 45 46
3 3 28 46
3 4 16 28
3 10 22 27
3 12 1 30
3 2 14 31
3 14 3 26
3 26 3 45
3 18 7 29
3 29 8 34
3 25 9 27
3 12 30 36
3 31 14 35
3 29 41 44
3 36 37 38
CELL_DATA 74
SCALARS mises double 1
LOOKUP_TABLE default
3536684.0243638293 9187301.802505428 3205560.3270193334 5727104.518571992 9017744.51978216 5637055.161197994 3633257.7233770206 5312568.066849744 6226978.630079001 4686551.012214247 6632819.253246968 3452677.3752062977 4422942.8744525295 4085312.3449571333 6164923.361215218 7112773.640333707 7189471.984871071 3658538.0334377824 4008479.9926532833 7304704.758379667 4012897.076838576 5431816.259965947 4230642.105195746 5123331.965732504 5941451.26995826 6884761.052705154 6444272.205623761 4141563.1432991647 3842860.6261540563 1251480.3939839166 1340272.3370128158 1507571.01585712 1624129.9425866792 4038863.3896098584 6263204.777426976 5181625.241276597 4497257.079322759 4767753.902073216 3005356.2177604465 7578990.895777484 6595813.707283296 7449658.037900432 4358833.216181466 3500737.485336584 6833706.491138919 7498603.444563416 6216289.879767824 5725646.853981289 3750754.874737142 3218753.0967134805 3741197.89326508 3501866.6871965826 4186079.0677601863 5119055.548852659 5467839.563751617 5137457.378371496 4842812.718911405 5355379.816306976 5679235.389375403 6222831.00265949 5224495.489245958 2568162.9098640713 2378310.4079134087 2385079.5851442977 8625532.093196282 9095644.519565877 6305413.557564872 2561278.9241646463 5302782.597588343 5174998.351595277 3416533.604355005 6977779.755604272 4248731.022872186 4633822.121693393
VECTORS principal_stress_1 float
123711.66100479617 558730.9271669022 0.0
-59702.56380581595 642776.337899767 0.0
21533.822060969724 135515.26970166585 0.0
-58387.693348574896 323583.72708281083 0.0
-65575.32932232086 -683765.050247342 0.0
-11949.231991642944 81390.60563445109 0.0
8069.5767445350875 -99202.89802632706 0.0
34617.77592183351 181659.36466525486 0.0
-148456.58394399413 -712399.1266779552 0.0
21155.2202759727 273980.0983813612 0.0
-160659.97205295585 770290.485035466 0.0
21224.54060662757 308879.75317884766 0.0
5045.481385476547 -286653.2457852323 0.0
3560.1214233277587 -316369.15268878115 0.0
-15415.949512008145 1278561.944716755 0.0
-33131.93574944216 1482796.3063831434 0.0
-24099.760735009226 -810478.5994274643 0.0
-14281.38458853594 -797205.3617151248 0.0
4051.814363548304 49096.386804247566 0.0
-9975.160980753955 -449049.65162739635 0.0
-7441.809032416237 129157.17247784088 0.0
973.9269070837854 -39296.37370099172 0.0
26546.610508584054 281063.0546384766 0.0
49375.355787633904 -533990.5326333437 0.0
-6561.343102760445 38354.589603938446 0.0
-4364.888105530106 1193316.486498333 0.0
-27829.60140997311 1048081.3024115699 0.0
11557.805324765575 -205110.26226664885 0.0
-14475.722565904654 200871.02986785688 0.0
47617.78806960842 -474148.00774581666 0.0
17937.524330038876 -509230.6499620488 0.0
37629.24829671171 402640.6767398979 0.0
13796.0148931292 575542.3623865194 0.0
2262.054857770292 -32825.9072277273 0.0
-17639.298453253483 -382640.4873033965 0.0
15834.400671675072 71710.24130005382 0.0
2615.661228209116 229050.48551859852 0.0
61978.859111105994 -282128.30503143236 0.0
17775.481199996684 -123978.24208369089 0.0
-11825.936767054867 -337097.5388597878 0.0
-6001.861391054889 997838.7844712317 0.0
-7339.140342469297 326964.47016529244 0.0
133497.18885401072 -732620.8184206445 0.0
-37010.39256223124 755670.3468079842 0.0
-26864.66852894605 -1055709.3953590516 0.0
-17768.046592773906 -799746.135327852 0.0
-33800.37742363866 668967.3418145707 0.0
-56600.18139471493 -664209.0921437067 0.0
-2047.4111628424555 254365.73155459893 0.0
567883.9416069244 921616.630482756 0.0
458258.74246463506 826929.9623807993 0.0
488853.7155672204 -831010.5841188695 0.0
392352.20174931036 -784231.0020624767 0.0
4344.711680349302 355244.13330757635 0.0
5060.1042751684045 471751.35666613193 0.0
-135316.86967387493 -603610.7561899276 0.0
-20745.662310679632 -167089.30768605857 0.0
-231.17516991333008 -348558.6323634745 0.0
3996.5719687658575 -180329.25920390195 0.0
-47777.817665831586 -467621.71102692606 0.0
-40448.137698295395 -214578.32012775444 0.0
-81426.65287956748 -223092.82777842967 0.0
-67622.47860637019 -184138.74944882593 0.0
-65301.61608695782 177714.52643838967 0.0
-105204.13024314451 817811.3063005096 0.0
-74333.75595940404 -817766.004248457 0.0
-181553.36860055375 -862209.5796777545 0.0
-64127.221685654906 164515.91434041597 0.0
-69853.9071267077 418579.9710691421 0.0
-45781.562041687976 -313520.90834951017 0.0
14297.29189396541 -286829.0927298601 0.0
-24334.851548319228 617021.4778884113 0.0
54885.19568704602 -254670.7072323348 0.0
7394.621891563623 -683551.9198669376 0.0
VECTORS principal_stress_2 float
-558730.9271669023 123711.6610047961 0.0
-642776.337899767 -59702.56380581592 0.0
-135515.26970166585 21533.822060969702 0.0
-323583.72708281083 -58387.693348574874 0.0
683765.050247342 -65575.3293223209 0.0
-81390.60563445109 -11949.231991642937 0.0
99202.89802632706 8069.576744535082 0.0
-181659.36466525486 34617.77592183352 0.0
712399.1266779553 -148456.58394399405 0.0
-273980.0983813612 21155.220275972657 0.0
-770290.4850354661 -160659.97205295583 0.0
-308879.75317884766 21224.54060662752 0.0
286653.2457852323 5045.48138547653 0.0
316369.15268878115 3560.121423327739 0.0
-1278561.944716755 -15415.949512008066 0.0
-1482796.3063831434 -33131.93574944206 0.0
810478.5994274643 -24099.760735009273 0.0
797205.3617151248 -14281.384588536168 0.0
-49096.386804247566 4051.814363548307 0.0
449049.65162739635 -9975.160980754083 0.0
-129157.17247784088 -7441.809032416229 0.0
39296.37370099172 973.9269070837829 0.0
-281063.0546384766 26546.610508584006 0.0
533990.5326333437 49375.35578763387 0.0
-38354.589603938446 -6561.343102760442 0.0
-1193316.486498333 -4364.888105530033 0.0
-1048081.3024115699 -27829.601409973046 0.0
205110.26226664885 11557.805324765563 0.0
-200871.02986785688 -14475.722565904643 0.0
474148.00774581666 47617.78806960838 0.0
509230.6499620488 17937.524330038847 0.0
-402640.6767398979 37629.24829671173 0.0
-575542.3623865194 13796.014893129235 0.0
32825.9072277273 2262.0548577702903 0.0
382640.4873033965 -17639.29845325342 0.0
-71710.24130005382 15834.400671675076 0.0
-229050.48551859852 2615.6612282090796 0.0
282128.30503143236 61978.85911110598 0.0
123978.24208369089 17775.481199996677 0.0
337097.5388597878 -11825.936767054813 0.0
-997838.7844712317 -6001.861391054828 0.0
-326964.47016529244 -7339.140342469277 0.0
732620.8184206445 133497.1888540107 0.0
-755670.3468079842 -37010.39256223119 0.0
1055709.3953590516 -26864.668528946117 0.0
799746.135327852 -17768.046592773957 0.0
-668967.3418145707 -33800.37742363862 0.0
664209.0921437067 -56600.18139471481 0.0
-254365.73155459893 -2047.41116284244 0.0
-921616.6304827558 567883.9416069246 0.0
-826929.9623807992 458258.7424646351 0.0
831010.5841188695 488853.7155672203 0.0
784231.0020624767 392352.2017493103 0.0
-355244.13330757635 4344.7116803493245 0.0
-471751.35666613193 5060.104275168328 0.0
603610.7561899276 -135316.86967387496 0.0
167089.30768605854 -20745.66231067964 0.0
348558.6323634745 -231.17516991327403 0.0
180329.25920390195 3996.571968765846 0.0
467621.71102692606 -47777.81766583162 0.0
214578.32012775444 -40448.13769829546 0.0
223092.8277784297 -81426.65287956745 0.0
184138.74944882593 -67622.47860637023 0.0
-177714.5264383897 -65301.616086957816 0.0
-817811.3063005096 -105204.13024314446 0.0
817766.004248457 -74333.75595940425 0.0
862209.5796777545 -181553.36860055377 0.0
-164515.91434041597 -64127.2216856549 0.0
-418579.9710691421 -69853.90712670768 0.0
313520.90834951017 -45781.562041687925 0.0
286829.0927298601 14297.291893965394 0.0
-617021.4778884113 -24334.851548319188 0.0
254670.7072323348 54885.195687046005 0.0
683551.9198669376 7394.62189156358 0.0
POINT_DATA 50
VECTORS displacements float
0.0 0.0 0.0
-1.9236318770269218e-05 -8.987146371907516e-07 0.0
-2.4938544226982816e-05 -4.2595887040492586e-07 0.0
-4.6818547054058416e-05 3.438952388148716e-07 0.0
-5.223148137889356e-05 -1.78763597555606e-07 0.0
-7.416800911437867e-05 -5.379170870026684e-07 0.0
-7.605552399436171e-05 5.328099504333354e-06 0.0
-5.3087950565145716e-05 1.901642868808301e-06 0.0
-4.742647950605451e-05 1.2467938815368093e-06 0.0
-2.5063563777856885e-05 8.630204868856992e-07 0.0
-1.9510730774988954e-05 1.3870106868478178e-06 0.0
0.0 0.0 0.0
-1.1731832038016996e-05 -2.7008772055320244e-06 0.0
-2.0184534702058016e-05 -4.7196282346771944e-07 0.0
-3.560389605441625e-05 -7.014825046220223e-07 0.0
-5.145496161378106e-05 3.17864451727722e-07 0.0
-6.032211478642074e-05 -1.1045016064303957e-06 0.0
-6.93863568714275e-05 1.9790952399303514e-06 0.0
-6.115564128354347e-05 3.4497547631468115e-06 0.0
-5.201742304574419e-05 1.5091896467318799e-06 0.0
-3.614926832235305e-05 1.7415630065600733e-06 0.0
-2.0478938440021506e-05 9.99619109648862e-07 0.0
-1.2025016620506574e-05 2.912207032818242e-06 0.0
0.0 0.0 0.0
-3.128512060527177e-05 4.1507265591154225e-07 0.0
-2.5164138291139338e-05 7.240471208703676e-07 0.0
-4.041056606880285e-05 6.088356865921991e-07 0.0
-1.9904210107461866e-05 1.8193584067057288e-06 0.0
-5.225594758011401e-05 -4.4804605448698997e-07 0.0
-5.205953725785663e-05 2.29308158120943e-06 0.0
-1.9825275861365988e-05 -1.342584544592915e-06 0.0
-2.8773937132458843e-05 2.9113394523578295e-07 0.0
-2.336790611279545e-05 -2.646836617162127e-07 0.0
-4.068960363967179e-05 6.65504429928648e-07 0.0
-4.602585364436956e-05 1.0905308957722413e-06 0.0
-3.455928652961775e-05 1.1098188076220258e-07 0.0
-1.6144634422292136e-05 -8.902942714047969e-07 0.0
-1.7391784815754986e-05 1.034807565598091e-06 0.0
-8.534629087220167e-06 3.058821598397799e-07 0.0
-4.3563461405198875e-05 7.003506463150674e-07 0.0
-4.734877164560896e-05 7.123551369069191e-07 0.0
-5.060467284768341e-05 1.3711923408633932e-06 0.0
-5.360789638890711e-05 1.6140073872626826e-07 0.0
-6.231118080668249e-05 1.4777002796387663e-06 0.0
-5.780419344850068e-05 2.03875853511886e-06 0.0
-4.514973314561461e-05 4.754176079718769e-07 0.0
-4.8686329828910895e-05 2.041640256936722e-07 0.0
-4.79616021524741e-06 -4.709317796677805e-07 0.0
-3.623539041120815e-05 6.731871740895816e-07 0.0
-6.621948287524318e-05 2.5101783173629724e-06 0.0