# vtk DataFile Version 2.0
Really cool data
ASCII
DATASET POLYDATA
POINTS 50 float
0.0 0.0 0
0.125 0.0 0
0.125 0.025 0
0.175 0.025 0
0.175 0.0 0
0.3 0.0 0
0.3 0.1 0
0.175 0.1 0
0.175 0.07500000000000001 0
0.125 0.07500000000000001 0
0.125 0.1 0
0.0 0.1 0
0.06250000013078053 0.0 0
0.125 0.01250000001946666 0
0.1500000000542101 0.025 0
0.175 0.01249999996954492 0
0.2375000000379471 0.0 0
0.3 0.05000000007786663 0
0.2374999999024218 0.09999999999999999 0
0.175 0.08749999992410586 0
0.1499999998970008 0.07500000000000002 0
0.125 0.08749999998373698 0
0.06249999984482352 0.1 0
0.0 0.05000000007786663 0
0.1368030376589693 0.05881183609165548 0
0.117775623603241 0.06013038045187373 0
0.162500000027105 0.041237976310672 0
0.107309198575727 0.08007003580073291 0
0.19212308841714 0.01780898906300205 0
0.1901864428630649 0.07906464689515667 0
0.1094436020031466 0.01874551931480652 0
0.1291338851563814 0.04361389724778988 0
0.1114151539582876 0.04074826126195277 0
0.1624999999485004 0.06043297861285827 0
0.1787552186679302 0.06017424107710374 0
0.1459442698801169 0.044214050543324 0
0.08315066519904095 0.03531547250623295 0
0.08792340551106274 0.06122065477279754 0
0.04632429568687593 0.05307658962797577 0
0.172304892364689 0.04902546201312089 0
0.1850949657786914 0.04563198790008897 0
0.1965712954394372 0.05628532213281995 0
0.2087061817377232 0.03693437174515411 0
0.253205755539793 0.04383466385996593 0
0.2266612590318197 0.06518650077867166 0
0.1762118450318149 0.03854480335931212 0
0.1861593669885893 0.03182859057267874 0
0.02720607395441411 0.0257691474264606 0
0.1502126267551182 0.05641628411908355 0
0.2685302890076256 0.07336950662279432 0
POLYGONS 74 296
3 5 17 43
3 8 20 33
3 28 16 42
3 2 31 32
3 20 9 24
3 30 2 32
3 18 29 44
3 25 27 37
3 24 9 25
3 16 5 43
3 8 33 34
3 27 22 37
3 12 36 38
3 42 43 44
3 33 26 39
3 26 33 48
3 35 26 48
3 11 23 38
3 22 11 38
3 14 26 35
3 44 43 49
3 32 25 37
3 42 16 43
3 6 18 49
3 29 34 41
3 24 31 35
3 24 25 31
3 12 38 47
3 0 12 47
3 7 19 29
3 1 13 30
3 21 10 27
3 15 4 28
3 18 44 49
3 31 25 32
3 28 42 46
3 37 22 38
3 30 32 36
3 43 17 49
3 20 24 48
3 34 33 39
3 33 20 48
3 17 6 49
3 23 0 47
3 39 26 45
3 24 35 48
3 34 39 40
3 40 39 45
3 38 23 47
3 3 15 28
3 9 21 27
3 13 2 30
3 19 8 29
3 41 42 44
3 36 32 37
3 45 3 46
3 42 40 46
3 34 40 41
3 41 40 42
3 40 45 46
3 3 28 46
3 4 16 28
3 10 22 27
3 12 1 30
3 2 14 31
3 14 3 26
3 26 3 45
3 18 7 29
3 29 8 34
3 25 9 27
3 12 30 36
3 31 14 35
3 29 41 44
3 36 37 38
CELL_DATA 74
SCALARS mises double 1
LOOKUP_TABLE default
5108543.427845638 13270547.107924046 4630253.696119424 8272484.423010655 13025630.911408447 8142413.108790629 5248038.988912795 7673709.298250177 8994524.555519633 6769462.520107846 9580739.053692592 4987200.605222679 6388695.275196184 5901006.7282698415 8904889.30660724 10274006.38247128 10384792.84841831 5284554.926759959 5790026.600509601 10551240.192212211 5796406.926604469 7845956.83653818 6110927.420001553 7400368.45988201 8582096.394133577 9944654.856106997 9308393.201990576 5982257.912183099 5550798.729068907 1807693.9789909497 1935948.957905023 2177602.509078376 2345965.4545761044 5833913.8312291885 9046851.315393945 7484569.641074101 6496037.995666123 6886755.7909458885 4341070.190894388 10947431.27103774 9527286.469747942 10760617.18048452 6296092.556615451 5056620.840721733 9870909.360584425 10831316.072630668 8979085.413643137 8270378.735712307 5417757.0464619575 4649309.444233994 5403952.024716273 5058252.414226486 6046559.073020078 7394191.339920342 7897990.473534758 7420771.626320742 6995173.845429132 7735548.623127476 8203340.021883549 8988533.604810687 7546493.359485691 3709568.4039788824 3435337.008918374 3445115.2039641966 12459101.994334152 13138153.137045102 9107819.451400438 3699625.3788460605 7659574.971009435 7474997.523833662 4934993.01865582 10079015.227608461 6137056.07351993 6693298.627909155
VECTORS principal_stress_1 float
178694.62145137112 807055.7836855272 0.0
-86237.03660840081 928454.7102996632 0.0
31104.40964362336 195744.27845796308 0.0
-84337.77928127498 467398.7168973923 0.0
-94719.9201322409 -987660.6281350438 0.0
-17260.00176570629 117564.2081386505 0.0
11656.055297661662 -143293.07492691523 0.0
50003.45410931464 262396.8600720329 0.0
-214437.2879191027 -1029020.9607570457 0.0
30557.540398627447 395749.0309953023 0.0
-232064.40407649265 1112641.8117178958 0.0
30657.669765128456 446159.6434805555 0.0
7287.91755679942 -414054.68835644453 0.0
5142.397611474124 -456977.6649949046 0.0
-22267.482628456135 1846811.6979241958 0.0
-47857.24052697104 2141816.886997873 0.0
-34810.765506125404 -1170691.3102841126 0.0
-20628.66662788497 -1151518.8558107344 0.0
5852.620747347589 70917.00316169122 0.0
-14408.565861089386 -648627.2745729082 0.0
-10749.279713490041 186560.36024577025 0.0
1406.7833102321542 -56761.42867921207 0.0
38345.10406795506 405979.9678111322 0.0
71319.95835991399 -771319.6582481565 0.0
-9477.495592877742 55401.07387236477 0.0
-6304.838374652673 1723679.369386478 0.0
-40198.313147738845 1513895.2145944864 0.0
16694.607691327987 -296270.3788296039 0.0
-20909.377039639996 290147.0431424591 0.0
68781.2494338774 -684880.4556328413 0.0
25909.757365611385 -735555.383278515 0.0
54353.358650805196 581592.0886242989 0.0
19927.577067851005 831338.9678916441 0.0
3267.412572334486 -47415.19932893407 0.0
-25478.98665469937 -552702.9261049038 0.0
22871.912081308965 103581.45965563504 0.0
3778.1773296353167 330850.7013046423 0.0
89525.01871604242 -407518.6628231824 0.0
25675.69506666217 -179079.6830097775 0.0
-17081.908663523893 -486918.6672419121 0.0
-8669.355342635787 1441322.6886806658 0.0
-10600.980494677591 472282.0124609747 0.0
192829.27278912644 -1058230.0710520437 0.0
-53459.45592322307 1091523.8342781977 0.0
-38804.5212084803 -1524913.571074184 0.0
-25664.956189562537 -1155188.8621402292 0.0
-48822.767389699686 966286.1603988252 0.0
-81755.8175701443 -959413.1330964713 0.0
-2957.3716796612384 367417.1678010868 0.0
820276.8045433414 1331224.0218084322 0.0
661929.2946711398 1194454.3901055995 0.0
706122.0335970928 -1200348.6215050295 0.0
566730.9580823295 -1132778.1140902312 0.0
6275.694649393223 513130.41477761144 0.0
7309.03950857675 681418.6262955252 0.0
-195457.70064004374 -871882.2033854588 0.0
-29965.95667098234 -241351.2222132005 0.0
-333.9196898751458 -503473.58008057484 0.0
5772.826177106632 -260475.59662785783 0.0
-69012.40329509103 -675453.5825944626 0.0
-58425.087786427015 -309946.4624067585 0.0
-117616.27638159716 -322245.1956799533 0.0
-97676.91354253519 -265978.1936483049 0.0
-94324.55657005023 256698.76041100765 0.0
-151961.52146231986 1181282.997989627 0.0
-107370.98083025095 -1181217.5616922146 0.0
-262243.7546452456 -1245413.837312302 0.0
-92628.20910150345 237634.09849171826 0.0
-100900.08807191282 604615.5137665512 0.0
-66128.92294910498 -452863.5342826246 0.0
20651.643846839106 -414308.68949868676 0.0
-35150.341125349936 891253.2458388199 0.0
79278.61599240062 -367857.6882244862 0.0
10681.120510036122 -987352.773141132 0.0
VECTORS principal_stress_2 float
-807055.7836855272 178694.621451371 0.0
-928454.7102996632 -86237.03660840075 0.0
-195744.27845796308 31104.409643623378 0.0
-467398.7168973923 -84337.77928127495 0.0
987660.6281350438 -94719.92013224075 0.0
-117564.20813865052 -17260.00176570628 0.0
143293.07492691523 11656.055297661653 0.0
-262396.8600720329 50003.454109314596 0.0
1029020.9607570457 -214437.28791910276 0.0
-395749.0309953023 30557.54039862738 0.0
-1112641.8117178958 -232064.4040764926 0.0
-446159.6434805555 30657.66976512849 0.0
414054.68835644453 7287.917556799396 0.0
456977.6649949046 5142.397611474096 0.0
-1846811.6979241958 -22267.482628456022 0.0
-2141816.886997873 -47857.240526970905 0.0
1170691.3102841126 -34810.76550612547 0.0
1151518.8558107344 -20628.66662788504 0.0
-70917.00316169122 5852.620747347578 0.0
648627.2745729082 -14408.565861089282 0.0
-186560.36024577025 -10749.27971349003 0.0
56761.42867921207 1406.7833102321506 0.0
-405979.9678111322 38345.104067954984 0.0
771319.6582481565 71319.95835991394 0.0
-55401.07387236477 -9477.495592877738 0.0
-1723679.369386478 -6304.838374652568 0.0
-1513895.2145944864 -40198.31314773875 0.0
296270.3788296039 16694.607691327972 0.0
-290147.0431424591 -20909.37703963998 0.0
684880.4556328413 68781.24943387735 0.0
735555.383278515 25909.75736561134 0.0
-581592.0886242989 54353.358650805225 0.0
-831338.9678916441 19927.57706785087 0.0
47415.19932893407 3267.4125723344837 0.0
552702.9261049038 -25478.98665469928 0.0
-103581.45965563504 22871.912081308972 0.0
-330850.7013046423 3778.1773296353376 0.0
407518.6628231824 89525.0187160424 0.0
179079.6830097775 25675.695066662163 0.0
486918.6672419121 -17081.908663523925 0.0
-1441322.6886806658 -8669.3553426357 0.0
-472282.0124609747 -10600.980494677562 0.0
1058230.0710520437 192829.27278912635 0.0
-1091523.8342781977 -53459.455923223 0.0
1524913.571074184 -38804.52120848039 0.0
1155188.8621402292 -25664.956189562352 0.0
-966286.1603988252 -48822.76738969963 0.0
959413.1330964713 -81755.81757014414 0.0
-367417.1678010868 -2957.371679661216 0.0
-1331224.0218084322 820276.8045433416 0.0
-1194454.3901055993 661929.2946711399 0.0
1200348.6215050295 706122.0335970928 0.0
1132778.1140902315 566730.9580823295 0.0
-513130.41477761144 6275.694649393255 0.0
-681418.6262955252 7309.039508576791 0.0
871882.2033854588 -195457.7006400438 0.0
241351.2222132005 -29965.95667098241 0.0
503473.58008057484 -333.9196898751767 0.0
260475.59662785783 5772.826177106616 0.0
675453.5825944626 -69012.40329509122 0.0
309946.4624067585 -58425.08778642704 0.0
322245.1956799533 -117616.27638159718 0.0
265978.1936483049 -97676.9135425352 0.0
-256698.76041100765 -94324.55657005022 0.0
-1181282.997989627 -151961.5214623198 0.0
1181217.5616922146 -107370.98083025102 0.0
1245413.837312302 -262243.7546452457 0.0
-237634.09849171826 -92628.20910150344 0.0
-604615.5137665512 -100900.08807191277 0.0
452863.5342826246 -66128.922949105 0.0
414308.68949868676 20651.643846839084 0.0
-891253.2458388199 -35150.34112534988 0.0
367857.6882244862 79278.61599240059 0.0
987352.773141132 10681.120510036062 0.0
POINT_DATA 50
VECTORS displacements float
0.0 0.0 0.0
-2.778579377927775e-05 -1.2981433648311124e-06 0.0
-3.6022341661197376e-05 -6.152739239182526e-07 0.0
-6.762679018919547e-05 4.967375671769735e-07 0.0
-7.544547310284627e-05 -2.5821408535815626e-07 0.0
-0.00010713156872076918 -7.769913478930084e-07 0.0
-0.00010985797910296677 7.69614372848127e-06 0.0
-7.668259526076589e-05 2.7468174771674727e-06 0.0
-6.850491484207862e-05 1.8009244955530996e-06 0.0
-3.620292545690434e-05 1.246585147723761e-06 0.0
-2.8182166674984004e-05 2.0034598810023776e-06 0.0
0.0 0.0 0.0
-1.6945979610468987e-05 -3.901267074657372e-06 0.0
-2.9155439014083785e-05 -6.817240783422878e-07 0.0
-5.142784985637901e-05 -1.0132525066762893e-06 0.0
-7.432383344212819e-05 4.5913754138442706e-07 0.0
-8.713194358038554e-05 -1.5953912092884992e-06 0.0
-0.00010022473770317301 2.8586931243435967e-06 0.0
-8.833592629845153e-05 4.9829791023230204e-06 0.0
-7.513627773274148e-05 2.1799406008348644e-06 0.0
-5.221560979895432e-05 2.515591009475622e-06 0.0
-2.95806888578088e-05 1.4438942694927757e-06 0.0
-1.7369468451842796e-05 4.206521269626337e-06 0.0
0.0 0.0 0.0
-4.518961865205917e-05 5.99549391872195e-07 0.0
-3.63481997538679e-05 1.045845841257177e-06 0.0
-5.8370817654937395e-05 8.794293250775719e-07 0.0
-2.8750525710778218e-05 2.627962143019366e-06 0.0
-7.548081317127577e-05 -6.471776342590679e-07 0.0
-7.519710937245947e-05 3.31222895063575e-06 0.0
-2.863650957752863e-05 -1.939288786634231e-06 0.0
-4.1562353635773855e-05 4.2052680978499174e-07 0.0
-3.375364216292673e-05 -3.8232084470121627e-07 0.0
-5.877387192397029e-05 9.612841765635497e-07 0.0
-6.648178859742261e-05 1.5752112938931668e-06 0.0
-4.991896943167005e-05 1.6030716110092176e-07 0.0
-2.3320027498866398e-05 -1.2859806142513863e-06 0.0
-2.5121466956090503e-05 1.4947220391972275e-06 0.0
-1.2327797570429113e-05 4.418297864352328e-07 0.0
-6.29249998075094e-05 1.01161760023281e-06 0.0
-6.839267015476843e-05 1.0289574199765793e-06 0.0
-7.309563855776486e-05 1.9806111590248025e-06 0.0
-7.74336281173102e-05 2.331344003822791e-07 0.0
-9.000503894298573e-05 2.134455959478044e-06 0.0
-8.349494609227865e-05 2.9448734396159965e-06 0.0
-6.521628121033215e-05 6.867143226259764e-07 0.0
-7.032469864176014e-05 2.949035926685595e-07 0.0
-6.927786977579587e-06 -6.802347928534621e-07 0.0
-5.234000837174505e-05 9.723814736849096e-07 0.0
-9.565036415312894e-05 3.6258131250796594e-06 0.0