# vtk DataFile Version 2.0
Really cool data
ASCII
DATASET POLYDATA
POINTS 50 float
0.0 0.0 0
0.125 0.0 0
0.125 0.025 0
0.175 0.025 0
0.175 0.0 0
0.3 0.0 0
0.3 0.1 0
0.175 0.1 0
0.175 0.07500000000000001 0
0.125 0.07500000000000001 0
0.125 0.1 0
0.0 0.1 0
0.06250000013078053 0.0 0
0.125 0.01250000001946666 0
0.1500000000542101 0.025 0
0.175 0.01249999996954492 0
0.2375000000379471 0.0 0
0.3 0.05000000007786663 0
0.2374999999024218 0.09999999999999999 0
0.175 0.08749999992410586 0
0.1499999998970008 0.07500000000000002 0
0.125 0.08749999998373698 0
0.06249999984482352 0.1 0
0.0 0.05000000007786663 0
0.1368030376589693 0.05881183609165548 0
0.117775623603241 0.06013038045187373 0
0.162500000027105 0.041237976310672 0
0.107309198575727 0.08007003580073291 0
0.19212308841714 0.01780898906300205 0
0.1901864428630649 0.07906464689515667 0
0.1094436020031466 0.01874551931480652 0
0.1291338851563814 0.04361389724778988 0
0.1114151539582876 0.04074826126195277 0
0.1624999999485004 0.06043297861285827 0
0.1787552186679302 0.06017424107710374 0
0.1459442698801169 0.044214050543324 0
0.08315066519904095 0.03531547250623295 0
0.08792340551106274 0.06122065477279754 0
0.04632429568687593 0.05307658962797577 0
0.172304892364689 0.04902546201312089 0
0.1850949657786914 0.04563198790008897 0
0.1965712954394372 0.05628532213281995 0
0.2087061817377232 0.03693437174515411 0
0.253205755539793 0.04383466385996593 0
0.2266612590318197 0.06518650077867166 0
0.1762118450318149 0.03854480335931212 0
0.1861593669885893 0.03182859057267874 0
0.02720607395441411 0.0257691474264606 0
0.1502126267551182 0.05641628411908355 0
0.2685302890076256 0.07336950662279432 0
POLYGONS 74 296
3 5 17 43
3 8 20 33
3 28 16 42
3 2 31 32
3 20 9 24
3 30 2 32
3 18 29 44
3 25 27 37
3 24 9 25
3 16 5 43
3 8 33 34
3 27 22 37
3 12 36 38
3 42 43 44
3 33 26 39
3 26 33 48
3 35 26 48
3 11 23 38
3 22 11 38
3 14 26 35
3 44 43 49
3 32 25 37
3 42 16 43
3 6 18 49
3 29 34 41
3 24 31 35
3 24 25 31
3 12 38 47
3 0 12 47
3 7 19 29
3 1 13 30
3 21 10 27
3 15 4 28
3 18 44 49
3 31 25 32
3 28 42 46
3 37 22 38
3 30 32 36
3 43 17 49
3 20 24 48
3 34 33 39
3 33 20 48
3 17 6 49
3 23 0 47
3 39 26 45
3 24 35 48
3 34 39 40
3 40 39 45
3 38 23 47
3 3 15 28
3 9 21 27
3 13 2 30
3 19 8 29
3 41 42 44
3 36 32 37
3 45 3 46
3 42 40 46
3 34 40 41
3 41 40 42
3 40 45 46
3 3 28 46
3 4 16 28
3 10 22 27
3 12 1 30
3 2 14 31
3 14 3 26
3 26 3 45
3 18 7 29
3 29 8 34
3 25 9 27
3 12 30 36
3 31 14 35
3 29 41 44
3 36 37 38
CELL_DATA 74
SCALARS mises double 1
LOOKUP_TABLE default
3536683.2913041394 9187302.071878472 3205559.8339310545 5727105.051401946 9017744.242536245 5637055.60296884 3633257.971533987 5312567.4744522 6226978.034403888 4686550.773306956 6632819.848758369 3452677.1598673984 4422942.928893931 4085312.379950023 6164923.393049112 7112773.69928548 7189471.901091562 3658537.986512046 4008479.7427001884 7304704.693866844 4012897.2471078583 5431816.334609109 4230641.811430383 5123332.257940261 5941451.788830583 6884761.062603215 6444272.278026988 4141563.316678561 3842860.836962773 1251480.738547614 1340272.4570020915 1507570.7036385722 1624129.8613658792 4038863.597677075 6263204.643424355 5181624.557812173 4497257.044222414 4767754.59785379 3005356.6613421566 7578990.792893698 6595813.723807614 7449658.103727991 4358833.81577145 3500737.6138966004 6833706.421366002 7498603.381739285 6216290.022670988 5725646.613808275 3750754.8980245604 3218750.4671280053 3741195.698264804 3501869.084437246 4186080.9559087576 5119055.510952025 5467839.530272546 5137456.737399957 4842812.350418437 5355379.814385193 5679235.456911365 6222830.707020774 5224494.926832893 2568161.8136523515 2378309.2966087274 2385080.699545032 8625532.46192412 9095644.259090632 6305412.964695277 2561280.1219014903 5302783.082806438 5174997.923477544 3416533.7599986754 6977779.868414647 4248731.705042648 4633822.156277563
VECTORS principal_stress_1 float
3438868.288381786 -761418.5777930795 0.0
9562534.758071557 888190.5071436001 0.0
3221778.945400413 -511951.2707517297 0.0
6051877.331296827 1092005.3396644425 0.0
9413404.530678738 -902776.6217653139 0.0
5796086.008313467 850943.125646646 0.0
3607665.2915478772 293462.5148855547 0.0
5422376.940992091 -1033311.0558482743 0.0
6773065.072938726 -1411436.462938575 0.0
4573921.049755872 -353172.75927760074 0.0
7218816.208869221 1505633.0474067258 0.0
3306311.2886712346 -227191.77117420494 0.0
4274145.3309459295 75230.68733108365 0.0
3918506.262725847 44095.19061770744 0.0
6704555.23847912 80838.54324301962 0.0
7739674.193944383 172937.02918701558 0.0
7565617.470595915 -224965.31183274594 0.0
3992176.8649119395 -71517.0969630739 0.0
4011510.083652286 -331060.90355013666 0.0
7522137.2916084835 -167096.2890878435 0.0
4088588.310785984 235577.26479540856 0.0
5415434.177417326 134216.8898092188 0.0
4124575.433223737 -389569.1579951814 0.0
4885955.698215593 451779.1725113965 0.0
6132601.374851634 1049107.8681423345 0.0
7403481.687412859 27080.300592951222 0.0
6907460.259926925 183413.12391193555 0.0
4049315.436877032 228175.80651888615 0.0
3957720.629221399 285212.18744014716 0.0
964306.7954166953 96843.50849967387 0.0
1013543.6842982472 35701.826859816894 0.0
1283507.0612258532 -119951.63103863459 0.0
1259369.2274562127 -30187.659073245308 0.0
4041763.9987083636 278520.6155556519 0.0
6457821.573576953 -297698.3509951006 0.0
5403208.917075305 -1193087.254409695 0.0
4378985.725461081 -50006.19472618265 0.0
4871376.031122934 1070159.6519234374 0.0
3007079.11918421 431142.41218131536 0.0
7750612.648225302 -271904.2547562842 0.0
7038061.7341791 42332.961644315394 0.0
7611260.418338483 170844.58248637404 0.0
4127012.4424395617 752018.7054183241 0.0
3822383.542585061 187208.50438561995 0.0
7303484.8677334795 -185851.99766182218 0.0
7869515.398986539 -174837.87679001832 0.0
6536950.630392766 330287.2721822845 0.0
6062864.565294698 -516643.3856840733 0.0
3871681.136064629 31163.487033015503 0.0
4456541.166718406 -2746042.2045161026 0.0
4820316.647030608 -2671268.84432853 0.0
4687846.211365893 2757691.7577575976 0.0
5104175.665722141 2553628.4019562276 0.0
4933024.380698425 -60331.94256219158 0.0
5217388.187271209 -55962.80307108508 0.0
5621468.651778273 -1260215.3509158217 0.0
4994884.673916809 -620160.5127274893 0.0
5521147.167392933 -3661.8003860182566 0.0
5589844.595044682 123885.69839935089 0.0
6500873.917036415 -664206.9034704025 0.0
5502045.093762208 -1037138.6887651343 0.0
2960071.1896773614 -1080396.4056614616 0.0
2739816.463255142 -1006160.7387169806 0.0
2746477.896438906 1009199.6910941661 0.0
9126929.851189645 1174098.11944049 0.0
9541621.574295007 -867319.7049961219 0.0
6909776.707679135 -1454974.831091125 0.0
2980157.3501575277 1161645.7399753009 0.0
5628993.329288653 939383.6409244615 0.0
5424564.877800138 -792116.4008153355 0.0
3273615.165165938 163176.72353051652 0.0
7275180.004837345 286927.4923960343 0.0
4331109.220099282 933416.2521889622 0.0
4254736.020758065 46027.46800571662 0.0
VECTORS principal_stress_2 float
761418.5777930799 3438868.288381786 0.0
-888190.5071435985 9562534.758071557 0.0
511951.2707517303 3221778.9454004127 0.0
-1092005.3396644427 6051877.331296827 0.0
902776.6217653138 9413404.530678738 0.0
-850943.1256466452 5796086.008313467 0.0
-293462.51488555403 3607665.2915478772 0.0
1033311.0558482746 5422376.940992091 0.0
1411436.4629385762 6773065.072938726 0.0
353172.75927760144 4573921.049755872 0.0
-1505633.047406725 7218816.208869222 0.0
227191.7711742052 3306311.2886712346 0.0
-75230.68733108349 4274145.3309459295 0.0
-44095.19061770746 3918506.262725847 0.0
-80838.54324301962 6704555.23847912 0.0
-172937.02918701482 7739674.193944383 0.0
224965.31183274664 7565617.470595915 0.0
71517.09696307404 3992176.8649119395 0.0
331060.9035501372 4011510.083652286 0.0
167096.28908784428 7522137.2916084835 0.0
-235577.26479540806 4088588.310785984 0.0
-134216.88980921792 5415434.177417326 0.0
389569.15799518203 4124575.433223737 0.0
-451779.17251139635 4885955.698215593 0.0
-1049107.8681423347 6132601.374851634 0.0
-27080.30059295118 7403481.687412859 0.0
-183413.12391193578 6907460.259926925 0.0
-228175.80651888624 4049315.436877032 0.0
-285212.18744014663 3957720.629221399 0.0
-96843.50849967376 964306.7954166953 0.0
-35701.82685981693 1013543.6842982472 0.0
119951.63103863462 1283507.0612258532 0.0
30187.65907324544 1259369.2274562127 0.0
-278520.61555565154 4041763.9987083636 0.0
297698.35099510074 6457821.573576953 0.0
1193087.254409695 5403208.917075304 0.0
50006.19472618266 4378985.725461081 0.0
-1070159.651923437 4871376.031122934 0.0
-431142.41218131536 3007079.11918421 0.0
271904.254756284 7750612.648225302 0.0
-42332.9616443155 7038061.7341791 0.0
-170844.58248637425 7611260.418338483 0.0
-752018.7054183237 4127012.4424395617 0.0
-187208.50438562 3822383.542585061 0.0
185851.99766182297 7303484.8677334795 0.0
174837.87679001866 7869515.398986539 0.0
-330287.2721822847 6536950.630392766 0.0
516643.3856840734 6062864.565294698 0.0
-31163.487033015164 3871681.136064629 0.0
2746042.2045161035 4456541.166718406 0.0
2671268.8443285297 4820316.647030608 0.0
-2757691.7577575976 4687846.211365893 0.0
-2553628.4019562267 5104175.665722141 0.0
60331.94256219187 4933024.380698425 0.0
55962.803071085546 5217388.187271209 0.0
1260215.3509158217 5621468.651778273 0.0
620160.5127274892 4994884.673916809 0.0
3661.8003860182444 5521147.167392933 0.0
-123885.69839935114 5589844.595044682 0.0
664206.9034704032 6500873.917036415 0.0
1037138.6887651351 5502045.093762208 0.0
1080396.405661462 2960071.1896773614 0.0
1006160.7387169809 2739816.463255142 0.0
-1009199.6910941659 2746477.896438906 0.0
-1174098.119440489 9126929.851189645 0.0
867319.7049961223 9541621.574295007 0.0
1454974.8310911248 6909776.707679135 0.0
-1161645.7399753002 2980157.3501575277 0.0
-939383.6409244614 5628993.329288653 0.0
792116.4008153363 5424564.877800138 0.0
-163176.72353051664 3273615.165165938 0.0
-286927.49239603366 7275180.004837345 0.0
-933416.2521889618 4331109.220099282 0.0
-46027.46800571645 4254736.020758065 0.0
POINT_DATA 50
VECTORS displacements float
0.0 0.0 0.0
1.9236318770269218e-05 8.987146371907516e-07 0.0
2.4938544226982816e-05 4.2595887040492586e-07 0.0
4.6818547054058416e-05 -3.438952388148716e-07 0.0
5.223148137889356e-05 1.78763597555606e-07 0.0
7.416800911437867e-05 5.379170870026684e-07 0.0
7.605552399436171e-05 -5.328099504333354e-06 0.0
5.3087950565145716e-05 -1.901642868808301e-06 0.0
4.742647950605451e-05 -1.2467938815368093e-06 0.0
2.5063563777856885e-05 -8.630204868856992e-07 0.0
1.9510730774988954e-05 -1.3870106868478178e-06 0.0
0.0 0.0 0.0
1.1731832038016996e-05 2.7008772055320244e-06 0.0
2.0184534702058016e-05 4.7196282346771944e-07 0.0
3.560389605441625e-05 7.014825046220223e-07 0.0
5.145496161378106e-05 -3.17864451727722e-07 0.0
6.032211478642074e-05 1.1045016064303957e-06 0.0
6.93863568714275e-05 -1.9790952399303514e-06 0.0
6.115564128354347e-05 -3.4497547631468115e-06 0.0
5.201742304574419e-05 -1.5091896467318799e-06 0.0
3.614926832235305e-05 -1.7415630065600733e-06 0.0
2.0478938440021506e-05 -9.99619109648862e-07 0.0
1.2025016620506574e-05 -2.912207032818242e-06 0.0
0.0 0.0 0.0
3.128512060527177e-05 -4.1507265591154225e-07 0.0
2.5164138291139338e-05 -7.240471208703676e-07 0.0
4.041056606880285e-05 -6.088356865921991e-07 0.0
1.9904210107461866e-05 -1.8193584067057288e-06 0.0
5.225594758011401e-05 4.4804605448698997e-07 0.0
5.205953725785663e-05 -2.29308158120943e-06 0.0
1.9825275861365988e-05 1.342584544592915e-06 0.0
2.8773937132458843e-05 -2.9113394523578295e-07 0.0
2.336790611279545e-05 2.646836617162127e-07 0.0
4.068960363967179e-05 -6.65504429928648e-07 0.0
4.602585364436956e-05 -1.0905308957722413e-06 0.0
3.455928652961775e-05 -1.1098188076220258e-07 0.0
1.6144634422292136e-05 8.902942714047969e-07 0.0
1.7391784815754986e-05 -1.034807565598091e-06 0.0
8.534629087220167e-06 -3.058821598397799e-07 0.0
4.3563461405198875e-05 -7.003506463150674e-07 0.0
4.734877164560896e-05 -7.123551369069191e-07 0.0
5.060467284768341e-05 -1.3711923408633932e-06 0.0
5.360789638890711e-05 -1.6140073872626826e-07 0.0
6.231118080668249e-05 -1.4777002796387663e-06 0.0
5.780419344850068e-05 -2.03875853511886e-06 0.0
4.514973314561461e-05 -4.754176079718769e-07 0.0
4.8686329828910895e-05 -2.041640256936722e-07 0.0
4.79616021524741e-06 4.709317796677805e-07 0.0
3.623539041120815e-05 -6.731871740895816e-07 0.0
6.621948287524318e-05 -2.5101783173629724e-06 0.0