# vtk DataFile Version 2.0
Really cool data
ASCII
DATASET POLYDATA
POINTS 54 float
0.0 0.0 0
0.125 0.0 0
0.125 0.01504 0
0.175 0.01504 0
0.175 0.0 0
0.3 0.0 0
0.3 0.1 0
0.175 0.1 0
0.175 0.08496000000000001 0
0.125 0.08496000000000001 0
0.125 0.1 0
0.0 0.1 0
0.06250000013078053 0.0 0
0.125 0.007520000018039827 0
0.1500000000542101 0.01504 0
0.175 0.007519999982007641 0
0.2375000000379471 0.0 0
0.3 0.05000000007786663 0
0.2374999999024218 0.09999999999999999 0
0.175 0.09247999995392144 0
0.1499999998970008 0.08496000000000001 0
0.125 0.09247999996205293 0
0.06249999984482352 0.1 0
0.0 0.05000000007786663 0
0.1375728405509754 0.06793997018709047 0
0.1225716044344862 0.06697703392646051 0
0.1629068822453034 0.03085845172532111 0
0.1281673740350127 0.05403635021238597 0
0.1639240774827421 0.07144565330012505 0
0.1502919655587774 0.05423337071025279 0
0.1356203081786971 0.03147571295621587 0
0.1213482543852917 0.03123000524814686 0
0.1116100719304784 0.04902302231365929 0
0.1108264226572041 0.0800342202044542 0
0.1092808715149127 0.01951577600971334 0
0.08322913588479497 0.03616795002096661 0
0.08313394309470018 0.0625838530905051 0
0.04750408515619993 0.04769407291344532 0
0.150000000034697 0.0393636435938678 0
0.163661676290049 0.0467788565861299 0
0.1777638170230781 0.0384048268040094 0
0.1390750713992865 0.0474204116525169 0
0.1512763998088053 0.06706661207787855 0
0.1606711199853387 0.06013564610545698 0
0.1747069293884388 0.05963103262680158 0
0.1934543961478153 0.04838829318865927 0
0.1938823707061474 0.02215074802942012 0
0.2234583817341915 0.04570211623126453 0
0.1909678570676316 0.07553138770977386 0
0.1742808353887282 0.07303821203375796 0
0.264462681701004 0.06439144347142173 0
0.2650842126946286 0.03201871195611058 0
0.1271642159857533 0.04263710047658498 0
0.02750102125025586 0.07442351824782797 0
POLYGONS 82 328
3 20 9 24
3 23 0 37
3 9 21 33
3 2 14 30
3 24 9 25
3 0 12 37
3 13 2 34
3 29 24 41
3 14 26 38
3 24 27 41
3 39 40 44
3 40 3 46
3 2 30 31
3 31 32 34
3 47 18 48
3 30 14 38
3 33 22 36
3 27 25 32
3 22 11 53
3 24 25 27
3 38 26 39
3 24 29 42
3 48 8 49
3 43 39 44
3 29 38 39
3 12 34 35
3 16 5 51
3 6 18 50
3 32 33 36
3 28 20 42
3 17 6 50
3 45 47 48
3 36 22 37
3 44 48 49
3 37 22 53
3 29 39 43
3 25 9 33
3 44 40 45
3 20 24 42
3 27 32 52
3 12 35 37
3 39 26 40
3 11 23 53
3 46 16 47
3 18 47 50
3 34 32 35
3 5 17 51
3 2 31 34
3 23 37 53
3 35 36 37
3 28 43 44
3 38 29 41
3 32 31 52
3 28 42 43
3 30 38 41
3 42 29 43
3 50 47 51
3 45 40 46
3 28 44 49
3 47 16 51
3 44 45 48
3 31 30 52
3 30 41 52
3 17 50 51
3 45 46 47
3 35 32 36
3 41 27 52
3 12 1 34
3 18 7 48
3 1 13 34
3 14 3 26
3 3 15 46
3 26 3 40
3 15 4 46
3 4 16 46
3 7 19 48
3 19 8 48
3 8 20 28
3 8 28 49
3 21 10 33
3 10 22 33
3 32 25 33
CELL_DATA 82
SCALARS mises double 1
LOOKUP_TABLE default
11062216.699005732 6045012.219916545 8688774.125038275 11167649.60547823 8661085.602570502 6667211.676104301 8398367.71623859 8302740.038113988 9239769.480871484 7837609.457222771 8264984.760957478 6936127.534402426 8492123.498689603 8499569.02455144 6694021.33856501 9127733.321755515 6415361.085849881 8059436.19323443 6455215.484652135 8533985.138094246 8449564.97846873 8988579.445459284 7458211.362437844 8040557.001501771 8064501.606135003 6325676.02282013 8400779.57832244 8309825.280115491 7281434.844619586 9413983.485947017 6445001.177457436 7405539.244357375 7140048.9855191205 7889105.1783631435 6835617.8601902295 8251141.928347378 6904624.30570963 7427047.55023011 9127110.582557857 7529925.210868981 7066003.386234628 7669954.163242076 5881157.666632094 6457781.505482201 6188498.104887707 7313062.358601753 6806281.001164521 6883789.413647158 6177525.899279237 7318625.892296993 8060020.358989158 8023763.363448646 8224319.11436357 8927345.266345724 8621097.278078388 8417113.059723902 6388654.372114124 8427500.302511007 8988325.918178173 6336405.754202457 8430693.479775295 8560882.00650574 7930071.155934968 4275516.242436544 7158913.925235961 8166570.791436938 8314895.363392051 5006317.986497831 5370715.393343146 3719706.6735615595 11146107.526438395 8786189.780121166 8910708.46273832 4458030.232207963 5365403.698609756 4213962.722144004 8715938.747353388 11534370.971705843 8563166.278596746 3589363.358659288 5054176.309746659 8647896.951282427
VECTORS principal_stress_1 float
11373115.083901957 -744587.2321557032 0.0
6596021.488497653 90472.55845805428 0.0
8924984.497636722 -2378580.618251083 0.0
11487377.834678732 858422.2310377158 0.0
9109320.682866087 -1131480.3717674534 0.0
6749692.339516077 428868.264838463 0.0
8662416.034171648 2482056.2672465 0.0
8858942.42678572 -241935.37501306448 0.0
9499355.895970859 -221709.66033495835 0.0
8351750.52944859 -240819.71565108278 0.0
8606362.367302824 93028.43254669913 0.0
7159285.046013451 -900179.623480583 0.0
8915889.304727238 1177259.9838777827 0.0
8525745.450139524 440727.2923176732 0.0
6714945.546668147 343354.38784761215 0.0
9376094.86079863 229052.81763754762 0.0
6258679.866357825 -57079.256771133965 0.0
8209720.928413506 -509249.5309315744 0.0
6680156.1230072575 -396759.17687406373 0.0
8883189.137984104 -72844.69953406515 0.0
9036100.384456955 -426265.7029575407 0.0
9451805.244387636 -134615.00456842865 0.0
7855070.6878510425 1557779.6166048625 0.0
8521944.436292218 -37888.3534608679 0.0
8592731.793640692 -47132.257999707355 0.0
6192987.310565552 65887.72902020712 0.0
8172411.760434036 -617430.7588098974 0.0
8125857.795086707 587748.7154212296 0.0
7181026.345973429 -590580.3211108356 0.0
9664712.091917012 169529.4246926578 0.0
6114991.0410608435 1292392.5577476462 0.0
7338742.937058508 505623.4153215714 0.0
6972251.298775261 -18031.261379483523 0.0
8095749.115652601 402148.73093684064 0.0
6763870.212409285 -292381.00852363004 0.0
8775082.67238483 98873.96369989088 0.0
7129305.424218986 -782068.0319464488 0.0
7670739.2913543675 -58064.088314916 0.0
9317709.0283512 -219877.97175788082 0.0
7837990.11008231 50413.693279069004 0.0
6966597.412976072 -45265.42348917355 0.0
8169306.793921238 -184236.69316683052 0.0
6420312.990384225 -270930.4881408815 0.0
6483694.843521526 -408475.993643932 0.0
6163603.46056906 372386.5860424019 0.0
7203487.24124485 628196.6322557398 0.0
6428538.726221898 -1294020.7529446296 0.0
7108123.59674079 878898.7912202331 0.0
6431921.301899062 -20715.173145144712 0.0
6949755.558119232 -5877.957688044084 0.0
8575200.70141373 401554.85932458914 0.0
8547364.736030368 -3605.525695871101 0.0
8321631.136644124 529810.6115797026 0.0
9459990.509878868 539050.7654477448 0.0
9168091.934336558 360928.5268672301 0.0
8808748.318718528 101922.91191265013 0.0
6660646.023025724 -79448.01274247168 0.0
8498572.461855272 -496375.6376058286 0.0
9303852.523509927 402088.23262836796 0.0
6359967.439484077 -395425.4311259499 0.0
8448831.957331432 387489.85941442486 0.0
8866224.428452794 129674.09074420693 0.0
8436401.275654498 304811.8792008486 0.0
4334104.250939351 -113129.49956878272 0.0
7099361.991001158 -619021.0439339522 0.0
7906419.60009429 8458.567580217197 0.0
8702799.633961221 -20594.281057448912 0.0
5286436.685965027 1114610.8170876787 0.0
5684953.577711393 1235203.7514379292 0.0
3682111.620731991 461990.28775223065 0.0
11440227.148837104 -714739.4248061207 0.0
8943617.347322434 -2327430.350911888 0.0
9340965.232775638 -1101532.4061213844 0.0
4436974.447935551 -559040.9723187684 0.0
5667449.968178669 -1158429.7184012404 0.0
4217510.716740862 654750.9536485807 0.0
8822374.976231072 1887859.8596801134 0.0
11800908.567090353 916279.8533942971 0.0
9043072.308332903 1539422.063358241 0.0
3565488.017726507 -514446.2014653892 0.0
5332404.342895204 -1139817.2420418225 0.0
8692524.65780041 -421530.4271412057 0.0
VECTORS principal_stress_2 float
744587.232155705 11373115.083901957 0.0
-90472.55845805399 6596021.488497653 0.0
2378580.618251083 8924984.497636722 0.0
-858422.2310377146 11487377.834678732 0.0
1131480.3717674543 9109320.682866087 0.0
-428868.26483846316 6749692.339516077 0.0
-2482056.2672465006 8662416.034171648 0.0
241935.37501306596 8858942.42678572 0.0
221709.66033495803 9499355.895970859 0.0
240819.7156510833 8351750.52944859 0.0
-93028.43254669903 8606362.367302824 0.0
900179.6234805837 7159285.046013451 0.0
-1177259.9838777818 8915889.304727238 0.0
-440727.2923176721 8525745.450139524 0.0
-343354.3878476115 6714945.546668147 0.0
-229052.81763754776 9376094.86079863 0.0
57079.25677113502 6258679.866357825 0.0
509249.5309315746 8209720.928413506 0.0
396759.1768740635 6680156.1230072575 0.0
72844.69953406499 8883189.137984104 0.0
426265.70295754063 9036100.384456955 0.0
134615.0045684282 9451805.244387636 0.0
-1557779.6166048616 7855070.6878510425 0.0
37888.35346086804 8521944.436292218 0.0
47132.25799970705 8592731.793640692 0.0
-65887.72902020726 6192987.310565552 0.0
617430.7588098975 8172411.760434036 0.0
-587748.71542123 8125857.795086707 0.0
590580.3211108354 7181026.345973429 0.0
-169529.4246926567 9664712.091917012 0.0
-1292392.5577476465 6114991.0410608435 0.0
-505623.41532157164 7338742.937058508 0.0
18031.26137948322 6972251.298775261 0.0
-402148.7309368401 8095749.115652601 0.0
292381.0085236301 6763870.212409285 0.0
-98873.96369989056 8775082.67238483 0.0
782068.0319464495 7129305.424218986 0.0
58064.088314915956 7670739.2913543675 0.0
219877.97175788193 9317709.028351199 0.0
-50413.693279067826 7837990.11008231 0.0
45265.42348917385 6966597.412976072 0.0
184236.6931668314 8169306.793921238 0.0
270930.48814088246 6420312.990384225 0.0
408475.99364393216 6483694.843521526 0.0
-372386.5860424021 6163603.46056906 0.0
-628196.6322557391 7203487.24124485 0.0
1294020.7529446296 6428538.726221898 0.0
-878898.7912202334 7108123.59674079 0.0
20715.173145145312 6431921.301899062 0.0
5877.957688044769 6949755.558119232 0.0
-401554.85932458844 8575200.70141373 0.0
3605.525695871681 8547364.736030368 0.0
-529810.6115797029 8321631.136644124 0.0
-539050.7654477449 9459990.509878868 0.0
-360928.52686722943 9168091.934336558 0.0
-101922.91191265052 8808748.318718528 0.0
79448.01274247152 6660646.023025724 0.0
496375.6376058285 8498572.461855272 0.0
-402088.2326283671 9303852.523509927 0.0
395425.4311259501 6359967.439484077 0.0
-387489.8594144239 8448831.957331432 0.0
-129674.09074420673 8866224.428452794 0.0
-304811.8792008477 8436401.275654498 0.0
113129.49956878308 4334104.250939351 0.0
619021.0439339525 7099361.991001158 0.0
-8458.567580216073 7906419.60009429 0.0
20594.281057450047 8702799.633961221 0.0
-1114610.8170876787 5286436.685965027 0.0
-1235203.751437929 5684953.577711393 0.0
-461990.28775223036 3682111.620731991 0.0
714739.4248061221 11440227.148837104 0.0
2327430.3509118888 8943617.347322434 0.0
1101532.4061213844 9340965.232775638 0.0
559040.9723187686 4436974.447935551 0.0
1158429.7184012407 5667449.968178669 0.0
-654750.9536485804 4217510.716740862 0.0
-1887859.8596801127 8822374.976231072 0.0
-916279.8533942964 11800908.567090353 0.0
-1539422.0633582405 9043072.308332903 0.0
514446.2014653893 3565488.017726507 0.0
1139817.2420418225 5332404.342895204 0.0
421530.427141207 8692524.65780041 0.0
POINT_DATA 54
VECTORS displacements float
0.0 0.0 0.0
3.549920894643575e-05 3.156722042996321e-06 0.0
3.8945266013298405e-05 2.1410259175672844e-06 0.0
6.616074851721513e-05 2.1580301835711135e-06 0.0
6.94442645757474e-05 3.2764246465621185e-06 0.0
0.00011067398546870663 6.053346894115143e-06 0.0
0.0001103047124397001 -4.441413359896289e-06 0.0
6.924881093633605e-05 -2.3700349577034137e-06 0.0
6.629849749564102e-05 -1.3276033605014388e-06 0.0
3.87718336234534e-05 -1.4722686936722673e-06 0.0
3.5243726658704564e-05 -2.48087230258172e-06 0.0
0.0 0.0 0.0
2.0157386794837296e-05 4.161421701111849e-06 0.0
3.612583337653146e-05 2.844007210350996e-06 0.0
5.25717069194637e-05 2.281051979446319e-06 0.0
6.879254777841261e-05 2.9166182025426274e-06 0.0
8.590313602086733e-05 3.478678139076944e-06 0.0
0.00010013036557918401 6.453509964258038e-07 0.0
8.57180083672882e-05 -2.3807162519663847e-06 0.0
6.85335122645914e-05 -2.032651665446775e-06 0.0
5.2270242916477866e-05 -1.4945837953235787e-06 0.0
3.596563516350905e-05 -2.1805109644696875e-06 0.0
1.9769409144097806e-05 -4.026086564644673e-06 0.0
0.0 0.0 0.0
4.693308785019625e-05 -1.1889982541819858e-07 0.0
4.0684818588317335e-05 -7.420418550130941e-07 0.0
5.842310302425781e-05 9.137775820894648e-07 0.0
4.371266876801579e-05 1.4872335913401362e-07 0.0
5.879902906512301e-05 -1.8577751180282755e-07 0.0
5.2617101862614285e-05 3.107155655714124e-07 0.0
4.6188436975164155e-05 8.687791087219017e-07 0.0
4.017948224695479e-05 1.5259241246703668e-06 0.0
3.7558309941910545e-05 3.461133469753612e-07 0.0
3.4741389644532885e-05 -2.1643122964293194e-06 0.0
3.434629340937383e-05 2.779814489132333e-06 0.0
2.6649237123402197e-05 1.568879913109431e-06 0.0
2.6582270038631586e-05 -1.07144986301897e-06 0.0
1.4460935719957183e-05 3.9677373437063855e-07 0.0
5.261019616310909e-05 6.891243830237338e-07 0.0
5.804282868686192e-05 5.374017158973076e-07 0.0
6.378047925856671e-05 1.0781394064989758e-06 0.0
4.8185000581651494e-05 4.0625476342585973e-07 0.0
5.302835477086128e-05 -2.4378989959456736e-07 0.0
5.692904961690737e-05 1.5937636852619184e-07 0.0
6.253218061833386e-05 3.630244512712456e-08 0.0
6.94252885583553e-05 5.908677487299574e-07 0.0
7.153917508368843e-05 2.5937165892078002e-06 0.0
7.987630139620571e-05 8.425726805771214e-07 0.0
7.013249644272577e-05 -1.5415307970808027e-06 0.0
6.350030262080946e-05 -7.238502472770614e-07 0.0
9.261054594556288e-05 1.8998881844679616e-07 0.0
9.309289332809003e-05 1.3558069550880056e-06 0.0
4.329511986733994e-05 6.452395257258592e-07 0.0
8.14479022554083e-06 -6.886295231227169e-07 0.0