# vtk DataFile Version 2.0
Really cool data
ASCII
DATASET POLYDATA
POINTS 50 float
0.0 0.0 0
0.125 0.0 0
0.125 0.025 0
0.175 0.025 0
0.175 0.0 0
0.3 0.0 0
0.3 0.1 0
0.175 0.1 0
0.175 0.07500000000000001 0
0.125 0.07500000000000001 0
0.125 0.1 0
0.0 0.1 0
0.06250000013078053 0.0 0
0.125 0.01250000001946666 0
0.1500000000542101 0.025 0
0.175 0.01249999996954492 0
0.2375000000379471 0.0 0
0.3 0.05000000007786663 0
0.2374999999024218 0.09999999999999999 0
0.175 0.08749999992410586 0
0.1499999998970008 0.07500000000000002 0
0.125 0.08749999998373698 0
0.06249999984482352 0.1 0
0.0 0.05000000007786663 0
0.1368030376589693 0.05881183609165548 0
0.117775623603241 0.06013038045187373 0
0.162500000027105 0.041237976310672 0
0.107309198575727 0.08007003580073291 0
0.19212308841714 0.01780898906300205 0
0.1901864428630649 0.07906464689515667 0
0.1094436020031466 0.01874551931480652 0
0.1291338851563814 0.04361389724778988 0
0.1114151539582876 0.04074826126195277 0
0.1624999999485004 0.06043297861285827 0
0.1787552186679302 0.06017424107710374 0
0.1459442698801169 0.044214050543324 0
0.08315066519904095 0.03531547250623295 0
0.08792340551106274 0.06122065477279754 0
0.04632429568687593 0.05307658962797577 0
0.172304892364689 0.04902546201312089 0
0.1850949657786914 0.04563198790008897 0
0.1965712954394372 0.05628532213281995 0
0.2087061817377232 0.03693437174515411 0
0.253205755539793 0.04383466385996593 0
0.2266612590318197 0.06518650077867166 0
0.1762118450318149 0.03854480335931212 0
0.1861593669885893 0.03182859057267874 0
0.02720607395441411 0.0257691474264606 0
0.1502126267551182 0.05641628411908355 0
0.2685302890076256 0.07336950662279432 0
POLYGONS 74 296
3 5 17 43
3 8 20 33
3 28 16 42
3 2 31 32
3 20 9 24
3 30 2 32
3 18 29 44
3 25 27 37
3 24 9 25
3 16 5 43
3 8 33 34
3 27 22 37
3 12 36 38
3 42 43 44
3 33 26 39
3 26 33 48
3 35 26 48
3 11 23 38
3 22 11 38
3 14 26 35
3 44 43 49
3 32 25 37
3 42 16 43
3 6 18 49
3 29 34 41
3 24 31 35
3 24 25 31
3 12 38 47
3 0 12 47
3 7 19 29
3 1 13 30
3 21 10 27
3 15 4 28
3 18 44 49
3 31 25 32
3 28 42 46
3 37 22 38
3 30 32 36
3 43 17 49
3 20 24 48
3 34 33 39
3 33 20 48
3 17 6 49
3 23 0 47
3 39 26 45
3 24 35 48
3 34 39 40
3 40 39 45
3 38 23 47
3 3 15 28
3 9 21 27
3 13 2 30
3 19 8 29
3 41 42 44
3 36 32 37
3 45 3 46
3 42 40 46
3 34 40 41
3 41 40 42
3 40 45 46
3 3 28 46
3 4 16 28
3 10 22 27
3 12 1 30
3 2 14 31
3 14 3 26
3 26 3 45
3 18 7 29
3 29 8 34
3 25 9 27
3 12 30 36
3 31 14 35
3 29 41 44
3 36 37 38
CELL_DATA 74
SCALARS mises double 1
LOOKUP_TABLE default
2750754.322622943 7145679.149796087 2493213.6424692846 4454414.566352664 7013801.3239689935 4384376.187401682 2825867.0906091323 4131997.451149523 4843205.667358665 3645095.2582674474 5158859.353024131 2685415.760198109 3440066.674080702 3177465.1533007827 4794940.388519163 5532157.269264911 5591811.553097457 2845529.5867766887 3117706.688725112 5681437.041463402 3121142.151955641 4224745.971679828 3290499.4477928383 3984813.7186577525 4621128.707870608 5354814.1510042185 5012211.707440333 3221215.758857196 2988891.5746966335 973373.6014804167 1042434.0265667066 1172555.2692464793 1263212.1865919386 3141338.1688002 4871381.508443497 4030153.041377832 3497866.6211510687 3708252.9576368686 2337499.2311935006 5894770.70814737 5130077.326050954 5794178.466608405 3390203.545964474 2722795.807644008 5315105.056416154 5832247.130529802 4834892.112830182 4453280.913115785 2917253.7888747295 2503474.922953167 2909820.8275394477 2723673.8236816134 3255839.0651302603 3981487.6533187996 4252764.108860038 3995800.2543968987 3766632.1556525268 4165295.4128967384 4417183.073121313 4839979.701583916 4063496.554126077 1997460.1628066604 1849797.1074109124 1855061.7757343384 6708747.14262736 7074390.210826275 4904210.610647066 1992105.6968239262 4124386.410877819 4024998.76547606 2657303.897204592 5427162.019602165 3304568.4975483133 3604083.8685855046
VECTORS principal_stress_1 float
96220.1807815071 434568.49890759005 0.0
-46435.32740452273 499937.1516998151 0.0
16748.52826964327 105400.76532351883 0.0
-45412.6503822249 251676.2321755191 0.0
-51003.03391736045 -531817.261303486 0.0
-9293.847104611292 63303.80438235162 0.0
6276.33746797154 -77157.80957603124 0.0
26924.93682809259 141290.6169618645 0.0
-115466.23195643972 -554088.2096384089 0.0
16454.060214645473 213095.63207439258 0.0
-124957.75604118762 599114.8216942528 0.0
16507.97602737671 240239.80802799077 0.0
3924.263299815119 -222952.5244996238 0.0
2768.983329255472 -246064.89653571887 0.0
-11990.18295378539 994437.068113028 0.0
-25769.28336067875 1153286.0160757771 0.0
-18744.25834945064 -630372.2439991389 0.0
-11107.743568861011 -620048.6146673193 0.0
3151.4111716486486 38186.0786255254 0.0
-7758.458540586535 -349260.84015464375 0.0
-5788.07369187934 100455.57859387586 0.0
757.4987055096105 -30563.846211882705 0.0
20647.363728898785 218604.5980521487 0.0
38403.05450149249 -415325.96982593206 0.0
-5103.266857702727 29831.34746973103 0.0
-3394.9129709670215 928135.0450542552 0.0
-21645.24554108944 815174.3463201086 0.0
8989.404141484354 -159530.20398517165 0.0
-11258.89532903691 156233.02323055427 0.0
37036.057387471665 -368781.78380229796 0.0
13951.407812252397 -396068.28330381395 0.0
29267.193119664553 313164.9707977002 0.0
10730.23380576739 447644.05963396106 0.0
1759.3760004879432 -25531.261177120665 0.0
-13719.454352530562 -297609.2679026419 0.0
12315.64496685916 55774.63212226752 0.0
2034.4031774959408 178150.37762557672 0.0
48205.77930863858 -219433.12613556045 0.0
13825.374266664077 -96427.52162064779 0.0
-9197.950818820336 -262186.9746687205 0.0
-4668.114415266276 776096.832366511 0.0
-5708.220266364823 254305.6990174464 0.0
103831.14688645185 -569816.1921049441 0.0
-28785.86088173565 587743.6030728762 0.0
-20894.74218918061 -821107.3075014839 0.0
-13819.591794378677 -622024.7719216661 0.0
-26289.18244060813 520307.93252244487 0.0
-44022.36330700003 -516607.07166733016 0.0
-1592.430904433026 197840.01343135533 0.0
441687.5101387238 716812.9348199277 0.0
356423.46636138443 643167.7485184025 0.0
380219.5565522843 -646341.5654257898 0.0
305162.8235827987 -609957.4460485965 0.0
3379.220195827061 276300.9925725602 0.0
3935.63665846449 366917.7218514371 0.0
-105246.4541907921 -469475.03259216895 0.0
-16135.515130528587 -129958.35042249176 0.0
-179.8029099325303 -271101.1585049253 0.0
3108.4448645957764 -140256.09049192446 0.0
-37160.52485120214 -363705.77524316835 0.0
-31459.66265422925 -166894.24898825077 0.0
-63331.84112855209 -173516.64382766606 0.0
-52595.26113828782 -143219.0273490862 0.0
-50790.14584541162 138222.40945208073 0.0
-81825.43463355706 636075.4604559526 0.0
-57815.14352398148 -636040.2255265778 0.0
-141208.175578209 -670607.4508604679 0.0
-49876.727977732095 127956.82226476925 0.0
-54330.81665410665 325562.1997204496 0.0
-35607.8815879793 -243849.5953829511 0.0
11120.115917529032 -223089.29434544835 0.0
-18927.10675980316 479905.59391320776 0.0
42688.48553436899 -198077.21673625978 0.0
5751.372582326791 -531651.4932298406 0.0
VECTORS principal_stress_2 float
-434568.49890759005 96220.18078150712 0.0
-499937.1516998151 -46435.3274045227 0.0
-105400.76532351883 16748.52826964325 0.0
-251676.2321755191 -45412.650382224885 0.0
531817.261303486 -51003.03391736049 0.0
-63303.80438235162 -9293.847104611286 0.0
77157.80957603124 6276.337467971534 0.0
-141290.6169618645 26924.936828092596 0.0
554088.2096384089 -115466.23195643965 0.0
-213095.63207439258 16454.060214645437 0.0
-599114.8216942528 -124957.75604118759 0.0
-240239.80802799077 16507.976027376724 0.0
222952.5244996238 3924.263299815105 0.0
246064.89653571887 2768.9833292554576 0.0
-994437.068113028 -11990.18295378533 0.0
-1153286.0160757771 -25769.283360678677 0.0
630372.2439991389 -18744.258349450538 0.0
620048.6146673193 -11107.743568860913 0.0
-38186.0786255254 3151.411171648643 0.0
349260.84015464375 -7758.458540586556 0.0
-100455.57859387586 -5788.073691879334 0.0
30563.846211882705 757.4987055096086 0.0
-218604.5980521487 20647.363728898796 0.0
415325.96982593206 38403.05450149246 0.0
-29831.34746973103 -5103.266857702725 0.0
-928135.0450542552 -3394.9129709669646 0.0
-815174.3463201086 -21645.24554108939 0.0
159530.20398517165 8989.404141484345 0.0
-156233.02323055427 -11258.895329036903 0.0
368781.78380229796 37036.057387471636 0.0
396068.28330381395 13951.407812252373 0.0
-313164.9707977002 29267.19311966457 0.0
-447644.05963396106 10730.233805767417 0.0
25531.261177120665 1759.3760004879418 0.0
297609.2679026419 -13719.45435253058 0.0
-55774.63212226752 12315.644966859176 0.0
-178150.37762557672 2034.403177495952 0.0
219433.12613556045 48205.779308638565 0.0
96427.52162064779 13825.374266664072 0.0
262186.97466872056 -9197.950818820294 0.0
-776096.832366511 -4668.114415266229 0.0
-254305.6990174464 -5708.220266364807 0.0
569816.1921049441 103831.14688645181 0.0
-587743.6030728762 -28785.860881735614 0.0
821107.3075014839 -20894.742189180663 0.0
622024.7719216661 -13819.591794378717 0.0
-520307.93252244487 -26289.182440608096 0.0
516607.0716673301 -44022.36330700017 0.0
-197840.01343135533 -1592.430904433014 0.0
-716812.9348199277 441687.51013872406 0.0
-643167.7485184023 356423.4663613845 0.0
646341.5654257898 380219.5565522843 0.0
609957.4460485965 305162.82358279865 0.0
-276300.9925725602 3379.220195827017 0.0
-366917.7218514371 3935.636658464594 0.0
469475.03259216895 -105246.45419079212 0.0
129958.35042249176 -16135.515130528594 0.0
271101.1585049253 -179.8029099325469 0.0
140256.09049192446 3108.4448645957677 0.0
363705.77524316835 -37160.524851202244 0.0
166894.24898825077 -31459.662654229298 0.0
173516.64382766606 -63331.8411285521 0.0
143219.02734908616 -52595.26113828786 0.0
-138222.40945208073 -50790.145845411615 0.0
-636075.4604559526 -81825.43463355702 0.0
636040.2255265778 -57815.14352398167 0.0
670607.4508604679 -141208.17557820902 0.0
-127956.82226476925 -49876.72797773209 0.0
-325562.1997204496 -54330.81665410663 0.0
243849.5953829511 -35607.88158797931 0.0
223089.29434544835 11120.11591752902 0.0
-479905.59391320776 -18927.10675980313 0.0
198077.21673625978 42688.48553436898 0.0
531651.4932298406 5751.372582326759 0.0
POINT_DATA 50
VECTORS displacements float
0.0 0.0 0.0
-1.4961581265764955e-05 -6.990002733706216e-07 0.0
-1.9396645509875524e-05 -3.313013436483157e-07 0.0
-3.641442548648991e-05 2.674740746336908e-07 0.0
-4.062448551691728e-05 -1.3903835365445923e-07 0.0
-5.7686229311183475e-05 -4.183799565579503e-07 0.0
-5.915429644005901e-05 4.144077392258965e-06 0.0
-4.129062821733546e-05 1.4790555646285788e-06 0.0
-3.688726183804233e-05 9.69728574528529e-07 0.0
-1.9493882938333105e-05 6.712381564666141e-07 0.0
-1.5175012824991377e-05 1.078786089770487e-06 0.0
0.0 0.0 0.0
-9.124758251791006e-06 -2.1006822709693635e-06 0.0
-1.5699082546045123e-05 -3.6708219603048736e-07 0.0
-2.769191915343488e-05 -5.455975035949708e-07 0.0
-4.0020525699607536e-05 2.4722790689923956e-07 0.0
-4.691720038943842e-05 -8.59056805001621e-07 0.0
-5.396716645555473e-05 1.5392962977232957e-06 0.0
-4.756549877608927e-05 2.6831425935584294e-06 0.0
-4.04579957022454e-05 1.1738141696802517e-06 0.0
-2.811609758405233e-05 1.3545490051022226e-06 0.0
-1.592806323112781e-05 7.774815297268543e-07 0.0
-9.352790704838425e-06 2.2650499144141736e-06 0.0
0.0 0.0 0.0
-2.4332871581878014e-05 3.2283428793115113e-07 0.0
-1.9572107559775023e-05 5.63147760676917e-07 0.0
-3.143044027573554e-05 4.735388673494074e-07 0.0
-1.5481052305803653e-05 1.4150565385488698e-06 0.0
-4.0643514784533154e-05 -3.484802646011194e-07 0.0
-4.049075120055509e-05 1.7835078964961e-06 0.0
-1.5419659003284657e-05 -1.0442324235722977e-06 0.0
-2.2379728880801313e-05 2.2643751296112186e-07 0.0
-1.8175038087729786e-05 -2.0586507022375322e-07 0.0
-3.164746949752249e-05 5.176145566110906e-07 0.0
-3.579788616784296e-05 8.48190696711639e-07 0.0
-2.687944507859157e-05 8.631924059276487e-08 0.0
-1.2556937884004996e-05 -6.924510999815281e-07 0.0
-1.3526943745587194e-05 8.048503287984935e-07 0.0
-6.638044845615682e-06 2.3790834654204404e-07 0.0
-3.3882692204043554e-05 5.447171693560694e-07 0.0
-3.682682239102918e-05 5.540539953719334e-07 0.0
-3.935918999264263e-05 1.0664829317825052e-06 0.0
-4.169503052470553e-05 1.2553390789805477e-07 0.0
-4.8464251738530814e-05 1.1493224397188111e-06 0.0
-4.4958817126611605e-05 1.5857010828700403e-06 0.0
-3.51164591132558e-05 3.6976925064469286e-07 0.0
-3.786714542248626e-05 1.5879424220607318e-07 0.0
-3.73034683408132e-06 -3.662802730749435e-07 0.0
-2.8183081430939656e-05 5.235900242918336e-07 0.0
-5.1504042236300205e-05 1.9523609135042795e-06 0.0