# vtk DataFile Version 2.0
Really cool data
ASCII
DATASET POLYDATA
POINTS 50 float
0.0 0.0 0
0.125 0.0 0
0.125 0.025 0
0.175 0.025 0
0.175 0.0 0
0.3 0.0 0
0.3 0.1 0
0.175 0.1 0
0.175 0.07500000000000001 0
0.125 0.07500000000000001 0
0.125 0.1 0
0.0 0.1 0
0.06250000013078053 0.0 0
0.125 0.01250000001946666 0
0.1500000000542101 0.025 0
0.175 0.01249999996954492 0
0.2375000000379471 0.0 0
0.3 0.05000000007786663 0
0.2374999999024218 0.09999999999999999 0
0.175 0.08749999992410586 0
0.1499999998970008 0.07500000000000002 0
0.125 0.08749999998373698 0
0.06249999984482352 0.1 0
0.0 0.05000000007786663 0
0.1368030376589693 0.05881183609165548 0
0.117775623603241 0.06013038045187373 0
0.162500000027105 0.041237976310672 0
0.107309198575727 0.08007003580073291 0
0.19212308841714 0.01780898906300205 0
0.1901864428630649 0.07906464689515667 0
0.1094436020031466 0.01874551931480652 0
0.1291338851563814 0.04361389724778988 0
0.1114151539582876 0.04074826126195277 0
0.1624999999485004 0.06043297861285827 0
0.1787552186679302 0.06017424107710374 0
0.1459442698801169 0.044214050543324 0
0.08315066519904095 0.03531547250623295 0
0.08792340551106274 0.06122065477279754 0
0.04632429568687593 0.05307658962797577 0
0.172304892364689 0.04902546201312089 0
0.1850949657786914 0.04563198790008897 0
0.1965712954394372 0.05628532213281995 0
0.2087061817377232 0.03693437174515411 0
0.253205755539793 0.04383466385996593 0
0.2266612590318197 0.06518650077867166 0
0.1762118450318149 0.03854480335931212 0
0.1861593669885893 0.03182859057267874 0
0.02720607395441411 0.0257691474264606 0
0.1502126267551182 0.05641628411908355 0
0.2685302890076256 0.07336950662279432 0
POLYGONS 74 296
3 5 17 43
3 8 20 33
3 28 16 42
3 2 31 32
3 20 9 24
3 30 2 32
3 18 29 44
3 25 27 37
3 24 9 25
3 16 5 43
3 8 33 34
3 27 22 37
3 12 36 38
3 42 43 44
3 33 26 39
3 26 33 48
3 35 26 48
3 11 23 38
3 22 11 38
3 14 26 35
3 44 43 49
3 32 25 37
3 42 16 43
3 6 18 49
3 29 34 41
3 24 31 35
3 24 25 31
3 12 38 47
3 0 12 47
3 7 19 29
3 1 13 30
3 21 10 27
3 15 4 28
3 18 44 49
3 31 25 32
3 28 42 46
3 37 22 38
3 30 32 36
3 43 17 49
3 20 24 48
3 34 33 39
3 33 20 48
3 17 6 49
3 23 0 47
3 39 26 45
3 24 35 48
3 34 39 40
3 40 39 45
3 38 23 47
3 3 15 28
3 9 21 27
3 13 2 30
3 19 8 29
3 41 42 44
3 36 32 37
3 45 3 46
3 42 40 46
3 34 40 41
3 41 40 42
3 40 45 46
3 3 28 46
3 4 16 28
3 10 22 27
3 12 1 30
3 2 14 31
3 14 3 26
3 26 3 45
3 18 7 29
3 29 8 34
3 25 9 27
3 12 30 36
3 31 14 35
3 29 41 44
3 36 37 38
CELL_DATA 74
SCALARS mises double 1
LOOKUP_TABLE default
5108542.6947859535 13270547.377297075 4630253.203031154 8272484.955840597 13025630.634162527 8142413.550561467 5248039.237069748 7673708.70585263 8994523.959844511 6769462.281200559 9580739.649203997 4987200.389883777 6388695.329637582 5901006.763262728 8904889.338441133 10274006.441423018 10384792.764638789 5284554.879834221 5790026.350556503 10551240.127699377 5796407.096873746 7845956.911181337 6110927.126236192 7400368.752089771 8582096.913005881 9944654.866005072 9308393.274393782 5982258.085562494 5550798.939877624 1807694.3235546486 1935949.0778942925 2177602.196859833 2345965.373355317 5833914.039296397 9046851.181391317 7484568.957609677 6496037.960565778 6886756.486726463 4341070.634476099 10947431.168153975 9527286.486272251 10760617.246312048 6296093.156205452 5056620.96928175 9870909.290811509 10831316.009806562 8979085.55654628 8270378.495539284 5417757.069749375 4649306.814648502 5403949.829715993 5058254.811467141 6046560.961168634 7394191.302019708 7897990.440055687 7420770.9853492025 6995173.4769361755 7735548.621205675 8203340.089419529 8988533.309171954 7546492.797072636 3709567.3077671663 3435335.897613689 3445116.3183649243 12459102.363062 13138152.876569858 9107818.858530825 3699626.5765828975 7659575.4562275205 7474997.095715921 4934993.174299487 10079015.340418855 6137056.755690383 6693298.662493325
VECTORS principal_stress_1 float
4967254.19432927 -1099826.834589999 0.0
13812550.206103316 1282941.8436518798 0.0
4653680.698911716 -739485.1688636153 0.0
8741600.589650966 1577341.0461819763 0.0
13597139.877647037 -1304010.6758832328 0.0
8372124.2342305565 1229140.0703784858 0.0
5211072.087791357 423890.2992791284 0.0
7832322.248099678 -1492560.4140030593 0.0
9783316.216467023 -2038741.5575779402 0.0
6606774.84964737 -510138.43006765225 0.0
10427178.968366643 2174803.2906986047 0.0
4775782.972525118 -328165.8916960721 0.0
6173765.478033003 108666.54836712033 0.0
5660064.601715116 63693.053114469 0.0
9684357.56669201 116766.78468435943 0.0
11179529.391252937 249797.93104789907 0.0
10928114.124194076 -324949.8948695388 0.0
5766477.693761681 -103302.47339110533 0.0
5794403.4541644 -478199.08290575224 0.0
10865309.421212232 -241361.3064602163 0.0
5905738.671135324 340278.2713711442 0.0
7822293.811825017 193868.84083553668 0.0
5957720.070212065 -562711.0059930473 0.0
7057491.5640891995 652569.9158497942 0.0
8858201.985896803 1515378.0317611499 0.0
10693917.992929682 39115.98974535152 0.0
9977442.597672183 264930.06787278445 0.0
5849011.186600151 329587.27608283394 0.0
5716707.575542018 411973.15963576833 0.0
1392887.5933796929 139885.06783286517 0.0
1464007.5439863587 51569.30546418412 0.0
1853954.6439928866 -173263.46705580407 0.0
1819088.8841034002 -43604.396439126314 0.0
5838103.553689861 402307.5558026053 0.0
9327964.495166712 -430008.729215145 0.0
7804635.1024421025 -1723348.2563695689 0.0
6325201.603443775 -72231.17016004054 0.0
7036432.044955343 1545786.1638894095 0.0
4343558.727710549 622761.2620396751 0.0
11195329.380769894 -392750.5902035237 0.0
10166089.171592021 61147.611264006766 0.0
10994042.826488877 246775.50803586692 0.0
5961240.194634936 1086249.2411597997 0.0
5521220.672622861 270412.2841125629 0.0
10549478.142281659 -268452.8855115409 0.0
11367077.798536127 -252543.59980781152 0.0
9442262.02167844 477081.6153744151 0.0
8757471.038759004 -746262.6682103234 0.0
5592428.3076489 45013.925714354315 0.0
6437226.129704341 -3966505.406523266 0.0
6962679.601266412 -3858499.4418078675 0.0
6771333.416417402 3983332.5389831965 0.0
7372698.183820906 3688574.358381234 0.0
7125479.66100881 -87146.13925650022 0.0
7536227.381613962 -80835.15999156833 0.0
8119899.163679761 -1820311.062433978 0.0
7214833.417879827 -895787.4072730438 0.0
7974990.352900904 -5289.267224249556 0.0
8074219.97062009 178946.00879906432 0.0
9390151.213497054 -959409.9716794711 0.0
7947398.468767628 -1498089.2171051942 0.0
4275658.385089533 -1560572.5859554468 0.0
3957512.66914631 -1453343.289257862 0.0
3967134.739300635 1457732.8871360186 0.0
13183343.11838505 1695919.5058584814 0.0
13782342.273981677 -1252795.1294388522 0.0
9980788.577758707 -2101630.3115760903 0.0
4304671.728005306 1677932.735519873 0.0
8130768.142305853 1356887.4813353415 0.0
7835482.601266835 -1144168.1345110359 0.0
4728555.238573015 235699.71176630293 0.0
10508593.340320617 414450.822349831 0.0
6256046.651254507 1348267.9198285101 0.0
6145729.807761643 66484.12045270133 0.0
VECTORS principal_stress_2 float
1099826.834589999 4967254.19432927 0.0
-1282941.8436518793 13812550.206103316 0.0
739485.1688636161 4653680.698911716 0.0
-1577341.0461819759 8741600.589650966 0.0
1304010.6758832342 13597139.877647037 0.0
-1229140.0703784847 8372124.234230557 0.0
-423890.29927912843 5211072.087791357 0.0
1492560.4140030597 7832322.248099678 0.0
2038741.5575779402 9783316.216467023 0.0
510138.4300676524 6606774.84964737 0.0
-2174803.2906986033 10427178.968366643 0.0
328165.8916960721 4775782.972525118 0.0
-108666.54836712047 6173765.478033003 0.0
-63693.05311446891 5660064.601715116 0.0
-116766.7846843589 9684357.56669201 0.0
-249797.93104789898 11179529.391252937 0.0
324949.89486953925 10928114.124194076 0.0
103302.47339110551 5766477.693761681 0.0
478199.08290575264 5794403.4541644 0.0
241361.30646021658 10865309.421212232 0.0
-340278.27137114445 5905738.671135324 0.0
-193868.84083553677 7822293.811825017 0.0
562711.0059930475 5957720.070212065 0.0
-652569.9158497942 7057491.5640891995 0.0
-1515378.0317611499 8858201.985896803 0.0
-39115.98974535017 10693917.992929682 0.0
-264930.0678727839 9977442.597672183 0.0
-329587.27608283405 5849011.186600151 0.0
-411973.1596357684 5716707.575542018 0.0
-139885.06783286526 1392887.5933796929 0.0
-51569.30546418396 1464007.5439863587 0.0
173263.4670558044 1853954.6439928866 0.0
43604.396439126605 1819088.8841034002 0.0
-402307.55580260535 5838103.553689861 0.0
430008.7292151456 9327964.495166712 0.0
1723348.2563695693 7804635.1024421025 0.0
72231.17016004153 6325201.603443775 0.0
-1545786.163889409 7036432.044955344 0.0
-622761.2620396751 4343558.727710549 0.0
392750.5902035243 11195329.380769894 0.0
-61147.61126400669 10166089.171592021 0.0
-246775.50803586564 10994042.826488877 0.0
-1086249.241159799 5961240.194634936 0.0
-270412.2841125621 5521220.672622862 0.0
268452.8855115423 10549478.142281659 0.0
252543.59980781263 11367077.798536127 0.0
-477081.6153744155 9442262.02167844 0.0
746262.668210324 8757471.038759004 0.0
-45013.92571435393 5592428.3076489 0.0
3966505.4065232677 6437226.12970434 0.0
3858499.441807868 6962679.601266412 0.0
-3983332.5389831974 6771333.416417402 0.0
-3688574.3583812336 7372698.183820906 0.0
87146.13925650064 7125479.66100881 0.0
80835.15999156961 7536227.381613962 0.0
1820311.0624339792 8119899.16367976 0.0
895787.4072730436 7214833.417879827 0.0
5289.267224250346 7974990.352900904 0.0
-178946.00879906444 8074219.97062009 0.0
959409.9716794721 9390151.213497054 0.0
1498089.217105194 7947398.468767628 0.0
1560572.5859554473 4275658.3850895325 0.0
1453343.2892578621 3957512.66914631 0.0
-1457732.8871360181 3967134.7393006356 0.0
-1695919.505858482 13183343.11838505 0.0
1252795.1294388527 13782342.273981677 0.0
2101630.311576092 9980788.577758705 0.0
-1677932.7355198734 4304671.728005306 0.0
-1356887.4813353405 8130768.142305853 0.0
1144168.1345110368 7835482.601266835 0.0
-235699.7117663025 4728555.238573015 0.0
-414450.82234983135 10508593.340320617 0.0
-1348267.9198285092 6256046.651254507 0.0
-66484.12045270146 6145729.807761643 0.0
POINT_DATA 50
VECTORS displacements float
0.0 0.0 0.0
2.778579377927773e-05 1.2981433648311181e-06 0.0
3.602234166119737e-05 6.152739239182605e-07 0.0
6.762679018919547e-05 -4.967375671769348e-07 0.0
7.544547310284631e-05 2.5821408535819083e-07 0.0
0.00010713156872076925 7.769913478932097e-07 0.0
0.00010985797910296669 -7.696143728481074e-06 0.0
7.668259526076582e-05 -2.7468174771674363e-06 0.0
6.850491484207858e-05 -1.8009244955530579e-06 0.0
3.6202925456904324e-05 -1.246585147723749e-06 0.0
2.8182166674983987e-05 -2.0034598810023675e-06 0.0
0.0 0.0 0.0
1.6945979610468987e-05 3.901267074657375e-06 0.0
2.915543901408377e-05 6.817240783422958e-07 0.0
5.142784985637901e-05 1.0132525066763092e-06 0.0
7.432383344212822e-05 -4.5913754138438974e-07 0.0
8.71319435803856e-05 1.5953912092886155e-06 0.0
0.000100224737703173 -2.8586931243434014e-06 0.0
8.833592629845144e-05 -4.982979102322903e-06 0.0
7.513627773274142e-05 -2.1799406008348263e-06 0.0
5.22156097989543e-05 -2.515591009475604e-06 0.0
2.9580688857808785e-05 -1.443894269492765e-06 0.0
1.736946845184279e-05 -4.206521269626335e-06 0.0
0.0 0.0 0.0
4.5189618652059144e-05 -5.995493918721822e-07 0.0
3.6348199753867884e-05 -1.0458458412571668e-06 0.0
5.837081765493739e-05 -8.794293250775457e-07 0.0
2.8750525710778208e-05 -2.6279621430193577e-06 0.0
7.548081317127579e-05 6.471776342591274e-07 0.0
7.519710937245942e-05 -3.3122289506356923e-06 0.0
2.8636509577528623e-05 1.939288786634237e-06 0.0
4.156235363577384e-05 -4.2052680978498147e-07 0.0
3.375364216292672e-05 3.8232084470122257e-07 0.0
5.877387192397026e-05 -9.612841765635185e-07 0.0
6.648178859742258e-05 -1.575211293893124e-06 0.0
4.991896943167005e-05 -1.6030716110090329e-07 0.0
2.332002749886639e-05 1.2859806142513897e-06 0.0
2.5121466956090496e-05 -1.494722039197223e-06 0.0
1.232779757042911e-05 -4.418297864352315e-07 0.0
6.292499980750939e-05 -1.011617600232774e-06 0.0
6.839267015476841e-05 -1.0289574199765329e-06 0.0
7.309563855776482e-05 -1.980611159024742e-06 0.0
7.74336281173102e-05 -2.3313440038219966e-07 0.0
9.000503894298572e-05 -2.1344559594779088e-06 0.0
8.34949460922786e-05 -2.944873439615893e-06 0.0
6.521628121033214e-05 -6.867143226259355e-07 0.0
7.032469864176014e-05 -2.9490359266850644e-07 0.0
6.927786977579587e-06 6.802347928534624e-07 0.0
5.234000837174504e-05 -9.723814736848886e-07 0.0
9.565036415312887e-05 -3.625813125079504e-06 0.0