# vtk DataFile Version 2.0
Really cool data
ASCII
DATASET POLYDATA
POINTS 50 float
0.0 0.0 0
0.125 0.0 0
0.125 0.025 0
0.175 0.025 0
0.175 0.0 0
0.3 0.0 0
0.3 0.1 0
0.175 0.1 0
0.175 0.07500000000000001 0
0.125 0.07500000000000001 0
0.125 0.1 0
0.0 0.1 0
0.06250000013078053 0.0 0
0.125 0.01250000001946666 0
0.1500000000542101 0.025 0
0.175 0.01249999996954492 0
0.2375000000379471 0.0 0
0.3 0.05000000007786663 0
0.2374999999024218 0.09999999999999999 0
0.175 0.08749999992410586 0
0.1499999998970008 0.07500000000000002 0
0.125 0.08749999998373698 0
0.06249999984482352 0.1 0
0.0 0.05000000007786663 0
0.1368030376589693 0.05881183609165548 0
0.117775623603241 0.06013038045187373 0
0.162500000027105 0.041237976310672 0
0.107309198575727 0.08007003580073291 0
0.19212308841714 0.01780898906300205 0
0.1901864428630649 0.07906464689515667 0
0.1094436020031466 0.01874551931480652 0
0.1291338851563814 0.04361389724778988 0
0.1114151539582876 0.04074826126195277 0
0.1624999999485004 0.06043297861285827 0
0.1787552186679302 0.06017424107710374 0
0.1459442698801169 0.044214050543324 0
0.08315066519904095 0.03531547250623295 0
0.08792340551106274 0.06122065477279754 0
0.04632429568687593 0.05307658962797577 0
0.172304892364689 0.04902546201312089 0
0.1850949657786914 0.04563198790008897 0
0.1965712954394372 0.05628532213281995 0
0.2087061817377232 0.03693437174515411 0
0.253205755539793 0.04383466385996593 0
0.2266612590318197 0.06518650077867166 0
0.1762118450318149 0.03854480335931212 0
0.1861593669885893 0.03182859057267874 0
0.02720607395441411 0.0257691474264606 0
0.1502126267551182 0.05641628411908355 0
0.2685302890076256 0.07336950662279432 0
POLYGONS 74 296
3 5 17 43
3 8 20 33
3 28 16 42
3 2 31 32
3 20 9 24
3 30 2 32
3 18 29 44
3 25 27 37
3 24 9 25
3 16 5 43
3 8 33 34
3 27 22 37
3 12 36 38
3 42 43 44
3 33 26 39
3 26 33 48
3 35 26 48
3 11 23 38
3 22 11 38
3 14 26 35
3 44 43 49
3 32 25 37
3 42 16 43
3 6 18 49
3 29 34 41
3 24 31 35
3 24 25 31
3 12 38 47
3 0 12 47
3 7 19 29
3 1 13 30
3 21 10 27
3 15 4 28
3 18 44 49
3 31 25 32
3 28 42 46
3 37 22 38
3 30 32 36
3 43 17 49
3 20 24 48
3 34 33 39
3 33 20 48
3 17 6 49
3 23 0 47
3 39 26 45
3 24 35 48
3 34 39 40
3 40 39 45
3 38 23 47
3 3 15 28
3 9 21 27
3 13 2 30
3 19 8 29
3 41 42 44
3 36 32 37
3 45 3 46
3 42 40 46
3 34 40 41
3 41 40 42
3 40 45 46
3 3 28 46
3 4 16 28
3 10 22 27
3 12 1 30
3 2 14 31
3 14 3 26
3 26 3 45
3 18 7 29
3 29 8 34
3 25 9 27
3 12 30 36
3 31 14 35
3 29 41 44
3 36 37 38
CELL_DATA 74
SCALARS mises double 1
LOOKUP_TABLE default
5894473.129586492 15312169.760633385 5342600.380669471 9545174.375229985 15029574.107221628 9395092.08258694 6055429.621680685 8854279.91395039 10378297.518239968 7810918.2740546465 11054698.953915425 5754462.220230875 7371571.475568015 6808853.919926192 10274872.279303238 11854622.75354014 11982453.280191964 6097563.373421054 6680799.90443777 12174507.909128523 6688161.851487389 9053027.124824293 7051070.077404459 8538886.706956761 9902418.95622122 11474601.757807963 10740453.700174006 6902605.296625068 6404767.780526331 2085800.771494449 2233787.2683511325 2512618.255689027 2706883.2105708886 6731439.05203882 10438674.584377421 8636041.840972861 7495428.453837808 7946256.735382217 5008927.177461323 12631651.458667906 10993022.850980258 12416096.751776632 7264722.226832436 5834562.518414308 11389510.795307169 12497672.386664324 10360483.180580776 9542744.676577799 6251258.132324371 5364587.617994249 6235329.090441874 5836445.2777414145 6976799.075649978 8531759.235454213 9113065.928426325 8562428.750295363 8071354.408688031 8925633.026537696 9465392.33813766 10371384.905886263 8707492.29460559 4280271.151036268 3963850.3094208566 3975133.013374139 14375886.944903094 15159407.4457847 10509022.398318173 4268798.606186762 8837971.15771998 8624997.10995288 5694222.725806224 11629632.963610595 7081218.598843811 7723036.8810170395
VECTORS principal_stress_1 float
206186.1016746597 931218.2119448344 0.0
-99504.27300969251 1071293.8964996035 0.0
35889.703434949406 225858.78283611088 0.0
-97312.82224762464 539306.2118046851 0.0
-109292.2155372004 -1139608.4170788901 0.0
-19915.386652738653 135651.00939075506 0.0
13449.294574224788 -165338.16337720782 0.0
57696.2932030556 302765.6077754242 0.0
-247427.63990665769 -1187331.877796597 0.0
35258.70045995445 456633.4973022707 0.0
-267766.6200882613 1283817.4750591205 0.0
35374.234344378885 514799.5886314103 0.0
8409.135642460751 -477755.4096420507 0.0
5933.535705547164 -527281.9211479652 0.0
-25693.24918667849 2130936.574527898 0.0
-55219.89291573581 2471327.177305238 0.0
-40166.267891683834 -1350797.6657124402 0.0
-23802.307647559875 -1328675.60285854 0.0
6753.023939247256 81827.31134041362 0.0
-16625.268301256336 -748416.0860456566 0.0
-12403.015054027199 215261.9541297397 0.0
1623.2115118063875 -65493.95616832387 0.0
44244.35084763972 468438.4243974603 0.0
82292.25964605571 -889984.2210555708 0.0
-10935.57183793545 63924.31600657219 0.0
-7274.813509212874 1988860.8108305563 0.0
-46382.66901662096 1746802.1706859453 0.0
19263.00887460926 -341850.43711108086 0.0
-24126.204276507775 334785.0497797617 0.0
79362.98011601105 -790246.6795763614 0.0
29895.87388339853 -848717.7499367433 0.0
62715.413827853255 671067.7945664978 0.0
22993.35815521546 959237.2706442043 0.0
3770.0914296170595 -54709.84537954395 0.0
-29398.83075542268 -637734.1455056593 0.0
26390.667786126458 119517.0688334291 0.0
4359.435380348531 381750.80919766455 0.0
103298.09851851013 -470213.84171905403 0.0
29625.801999994226 -206630.4034728174 0.0
-19709.89461175754 -561829.2314329598 0.0
-10003.10231842736 1663064.6407853798 0.0
-12231.900570781496 544940.7836088073 0.0
222495.31475668753 -1221034.6973677524 0.0
-61683.98760371865 1259450.5780133053 0.0
-44774.447548247335 -1759515.6589317378 0.0
-29613.41098795711 -1332910.2255464203 0.0
-56333.96237273211 1114945.5696909514 0.0
-94333.63565785723 -1107015.1535728476 0.0
-3412.351938070663 423942.8859243313 0.0
946473.2360115376 1536027.7174712548 0.0
763764.5707743904 1378216.603967997 0.0
814756.1926120302 -1385017.6401981101 0.0
653920.3362488577 -1307051.6701041404 0.0
7241.186133915125 592073.5555126285 0.0
8433.50712528087 786252.2611102219 0.0
-225528.11612312708 -1006017.9269832266 0.0
-34576.10385113345 -278482.1794767701 0.0
-385.29194985503096 -580931.0539391194 0.0
6660.953281276828 -300548.7653398395 0.0
-79629.69610971959 -779369.5183782162 0.0
-67413.56283049147 -357630.5335462533 0.0
-135711.08813261092 -371821.3796307106 0.0
-112704.1310106168 -306897.9157480427 0.0
-108836.02681159605 296190.8773973153 0.0
-175340.21707190687 1363018.8438341848 0.0
-123889.59326567253 -1362943.340414096 0.0
-302588.94766758906 -1437015.966129563 0.0
-106878.70280942411 274193.19056735805 0.0
-116423.17854451507 697633.2851152541 0.0
-76302.60340281307 -522534.8472491854 0.0
23828.819823275833 -478048.4878830989 0.0
-40558.08591386495 1028369.1298140137 0.0
91475.32614507733 -424451.1787205577 0.0
12324.36981927193 -1139253.199778228 0.0
VECTORS principal_stress_2 float
-931218.2119448346 206186.10167465959 0.0
-1071293.8964996035 -99504.27300969245 0.0
-225858.78283611085 35889.70343494948 0.0
-539306.2118046851 -97312.8222476246 0.0
1139608.4170788901 -109292.21553720023 0.0
-135651.00939075506 -19915.386652738645 0.0
165338.16337720782 13449.29457422478 0.0
-302765.6077754242 57696.29320305561 0.0
1187331.877796597 -247427.63990665777 0.0
-456633.4973022707 35258.70045995458 0.0
-1283817.4750591205 -267766.62008826126 0.0
-514799.5886314103 35374.23434437903 0.0
477755.4096420507 8409.135642460722 0.0
527281.9211479652 5933.535705547132 0.0
-2130936.574527898 -25693.24918667836 0.0
-2471327.177305238 -55219.892915735654 0.0
1350797.6657124402 -40166.267891683914 0.0
1328675.60285854 -23802.307647560254 0.0
-81827.31134041362 6753.023939247261 0.0
748416.0860456566 -16625.268301256383 0.0
-215261.9541297397 -12403.015054027186 0.0
65493.95616832387 1623.2115118063834 0.0
-468438.4243974603 44244.350847639755 0.0
889984.2210555708 82292.25964605565 0.0
-63924.31600657219 -10935.571837935444 0.0
-1988860.8108305563 -7274.813509212752 0.0
-1746802.1706859453 -46382.66901662085 0.0
341850.43711108086 19263.00887460924 0.0
-334785.0497797617 -24126.204276507757 0.0
790246.6795763614 79362.98011601101 0.0
848717.7499367433 29895.873883398475 0.0
-671067.7945664978 62715.41382785331 0.0
-959237.2706442043 22993.35815521552 0.0
54709.84537954395 3770.0914296170563 0.0
637734.1455056593 -29398.830755422863 0.0
-119517.0688334291 26390.667786126465 0.0
-381750.80919766455 4359.43538034847 0.0
470213.84171905403 103298.09851851009 0.0
206630.4034728174 29625.80199999421 0.0
561829.2314329598 -19709.894611757572 0.0
-1663064.6407853798 -10003.10231842726 0.0
-544940.7836088073 -12231.900570781463 0.0
1221034.6973677524 222495.31475668744 0.0
-1259450.5780133053 -61683.98760371857 0.0
1759515.6589317378 -44774.44754824706 0.0
1332910.2255464203 -29613.410987957195 0.0
-1114945.5696909514 -56333.96237273204 0.0
1107015.1535728476 -94333.63565785729 0.0
-423942.8859243313 -3412.351938070637 0.0
-1536027.7174712545 946473.236011538 0.0
-1378216.6039679972 763764.57077439 0.0
1385017.6401981101 814756.1926120302 0.0
1307051.6701041404 653920.3362488576 0.0
-592073.5555126285 7241.18613391503 0.0
-786252.2611102219 8433.507125280918 0.0
1006017.9269832266 -225528.11612312714 0.0
278482.1794767701 -34576.10385113346 0.0
580931.0539391194 -385.29194985493757 0.0
300548.7653398395 6660.953281276809 0.0
779369.5183782162 -79629.69610971963 0.0
357630.5335462533 -67413.56283049149 0.0
371821.3796307106 -135711.08813261092 0.0
306897.9157480427 -112704.13101061688 0.0
-296190.8773973153 -108836.02681159604 0.0
-1363018.8438341848 -175340.21707190678 0.0
1362943.340414096 -123889.5932656726 0.0
1437015.966129563 -302588.9476675891 0.0
-274193.19056735805 -106878.7028094241 0.0
-697633.2851152541 -116423.17854451505 0.0
522534.8472491854 -76302.60340281298 0.0
478048.4878830989 23828.819823275804 0.0
-1028369.1298140137 -40558.08591386488 0.0
424451.1787205577 91475.32614507731 0.0
1139253.199778228 12324.369819271858 0.0
POINT_DATA 50
VECTORS displacements float
0.0 0.0 0.0
-3.2060531283782005e-05 -1.4978577286512407e-06 0.0
-4.156424037830466e-05 -7.099314506748666e-07 0.0
-7.803091175676398e-05 5.731587313581483e-07 0.0
-8.705246896482256e-05 -2.97939329259319e-07 0.0
-0.00012361334852396437 -8.965284783377548e-07 0.0
-0.00012675920665726947 8.88016584055562e-06 0.0
-8.847991760857616e-05 3.1694047813471954e-06 0.0
-7.90441325100908e-05 2.0779898025613714e-06 0.0
-4.1772606296428115e-05 1.4383674781428433e-06 0.0
-3.251788462498158e-05 2.3116844780797092e-06 0.0
0.0 0.0 0.0
-1.9553053396694978e-05 -4.501462009220032e-06 0.0
-3.364089117009667e-05 -7.866047057795214e-07 0.0
-5.9339826757360397e-05 -1.1691375077033594e-06 0.0
-8.575826935630171e-05 5.297740862129e-07 0.0
-0.00010053685797736784 -1.8408360107172965e-06 0.0
-0.00011564392811904577 3.2984920665506007e-06 0.0
-0.00010192606880590576 5.749591271911373e-06 0.0
-8.66957050762403e-05 2.515316077886491e-06 0.0
-6.0248780537255045e-05 2.9026050109334965e-06 0.0
-3.4131564066702495e-05 1.6660318494147828e-06 0.0
-2.004169436751094e-05 4.853678388030404e-06 0.0
0.0 0.0 0.0
-5.2141867675452904e-05 6.917877598525867e-07 0.0
-4.194023048523219e-05 1.2067452014506236e-06 0.0
-6.735094344800474e-05 1.0147261443203504e-06 0.0
-3.317368351243643e-05 3.0322640111762233e-06 0.0
-8.709324596685664e-05 -7.467434241449573e-07 0.0
-8.676589542976103e-05 3.821802635349074e-06 0.0
-3.3042126435609954e-05 -2.2376409076548465e-06 0.0
-4.795656188743137e-05 4.852232420596501e-07 0.0
-3.894651018799238e-05 -4.4113943619367944e-07 0.0
-6.781600606611964e-05 1.1091740498811062e-06 0.0
-7.670975607394924e-05 1.817551492953764e-06 0.0
-5.7598810882696235e-05 1.8496980127035538e-07 0.0
-2.690772403715354e-05 -1.4838237856746553e-06 0.0
-2.8986308026258285e-05 1.7246792759968238e-06 0.0
-1.42243818120336e-05 5.098035997329684e-07 0.0
-7.260576900866474e-05 1.1672510771918035e-06 0.0
-7.891461940934822e-05 1.1872585615115596e-06 0.0
-8.434112141280566e-05 2.285320568105686e-06 0.0
-8.93464939815118e-05 2.690012312104769e-07 0.0
-0.00010385196801113744 2.462833799397976e-06 0.0
-9.634032241416777e-05 3.3979308918647944e-06 0.0
-7.524955524269096e-05 7.923626799531545e-07 0.0
-8.114388304818478e-05 3.4027337615615e-07 0.0
-7.993600358745678e-06 -7.84886299446299e-07 0.0
-6.039231735201355e-05 1.1219786234826555e-06 0.0
-0.00011036580479207191 4.183630528938313e-06 0.0