# vtk DataFile Version 2.0
Really cool data
ASCII
DATASET POLYDATA
POINTS 53 float
0.0 0.0 0
0.125 0.0 0
0.125 0.01836 0
0.175 0.01836 0
0.175 0.0 0
0.3 0.0 0
0.3 0.1 0
0.175 0.1 0
0.175 0.08164 0
0.125 0.08164 0
0.125 0.1 0
0.0 0.1 0
0.06250000013078053 0.0 0
0.125 0.009180000022558255 0
0.1500000000542101 0.01836 0
0.175 0.00917999997356883 0
0.2375000000379471 0.0 0
0.3 0.05000000007786663 0
0.2374999999024218 0.09999999999999999 0
0.175 0.09081999995663192 0
0.1499999998970008 0.08164000000000002 0
0.125 0.09081999993494787 0
0.06249999984482352 0.1 0
0.0 0.05000000007786663 0
0.1368619660143124 0.0653601962996502 0
0.121060420158098 0.06251211153925611 0
0.1603035632920101 0.03496182208379178 0
0.1290979734554942 0.0494256765355508 0
0.1646655254736792 0.0672934795385016 0
0.1436633160415155 0.04920118274982435 0
0.1375000000271051 0.03295468175021105 0
0.1200960002587792 0.03521047808105936 0
0.1081742028459394 0.01681894822074809 0
0.1126901745374466 0.05012853945277377 0
0.09047664963082694 0.03841411081172646 0
0.1040513831208687 0.07313560611033688 0
0.04557198810781599 0.04290248510154608 0
0.0694558521330391 0.06269471054791581 0
0.1497363719609772 0.03778699266388674 0
0.1574009928950587 0.04734685017935117 0
0.171860837081124 0.04201455823380814 0
0.1674616511194901 0.05476426466758284 0
0.1792036656462088 0.05730628869726481 0
0.03145333610718935 0.0730201220320621 0
0.265389273341421 0.06798659171924717 0
0.2359388594312903 0.05722382317648694 0
0.2608431836097403 0.03428854488288521 0
0.2104076395601956 0.02333318472135888 0
0.1889097288057837 0.04285236608414051 0
0.1831870020064376 0.03076282714054168 0
0.2002799847637 0.06473938037655472 0
0.1512180181519648 0.06213226091471723 0
0.1685521445148501 0.02842389439784905 0
POLYGONS 80 320
3 13 2 32
3 20 9 24
3 24 9 25
3 2 14 30
3 28 41 42
3 23 0 36
3 2 30 31
3 40 26 52
3 47 48 49
3 0 12 36
3 12 32 34
3 29 27 30
3 48 47 50
3 49 40 52
3 26 14 52
3 46 45 47
3 39 41 51
3 30 27 31
3 22 11 43
3 41 28 51
3 45 18 50
3 24 25 27
3 24 27 29
3 35 22 37
3 16 5 46
3 6 18 44
3 39 26 40
3 29 30 38
3 14 26 38
3 31 33 34
3 12 34 36
3 5 17 46
3 36 34 37
3 29 39 51
3 32 31 34
3 27 25 33
3 47 45 50
3 31 27 33
3 16 46 47
3 2 31 32
3 42 48 50
3 28 20 51
3 39 40 41
3 20 24 51
3 11 23 43
3 30 14 38
3 36 37 43
3 3 49 52
3 44 45 46
3 17 6 44
3 24 29 51
3 23 36 43
3 48 40 49
3 41 40 42
3 37 22 43
3 44 18 45
3 38 26 39
3 34 33 35
3 34 35 37
3 42 40 48
3 33 25 35
3 29 38 39
3 17 44 46
3 12 1 32
3 14 3 52
3 1 13 32
3 3 15 47
3 3 47 49
3 15 4 47
3 4 16 47
3 19 18 7
3 19 8 50
3 8 20 28
3 8 28 42
3 8 42 50
3 9 21 35
3 25 9 35
3 21 10 35
3 10 22 35
3 18 19 50
CELL_DATA 80
SCALARS mises double 1
LOOKUP_TABLE default
6837976.102526337 12226249.908598803 9273007.866496317 12360434.149499116 8037459.264968902 6082200.105724801 9408394.424204106 9425979.208993806 7390169.58729664 6623971.306260358 5813751.708431164 8727265.744494027 8464935.96734812 8539207.279522587 11009218.085852131 6297864.223132499 8687223.333252786 8975526.109393986 6475365.857664666 9392612.400674922 7102881.106414321 8644801.021010596 8698778.106451027 7056355.225362128 8269549.759365949 8429398.744651744 8583181.982308868 9697273.101055527 10177486.092088604 7883980.847043141 7327105.368646192 6535958.524912315 7368435.209222949 8966516.695682675 8219703.90126826 8750516.949455237 7016687.907571763 8784277.473024914 6518144.13282468 7394383.566114221 8674876.913828025 10295725.505241306 8857334.238328125 9951241.7402693 5917984.621678873 10096847.181217924 6844277.655258537 9256194.401193095 6339425.810335501 6795463.058055798 9668847.999870125 6249779.46942569 8752033.245345064 8455061.268492352 7057340.988101188 6286975.395385997 9825549.64941352 8856829.862701533 7326053.41890079 8622994.451232677 8965450.96325 8978571.14075248 4335469.636155677 4633001.172485879 12899727.377509797 3129114.905036379 7092857.452187255 6471443.256892647 4904692.9300709795 4998752.087458905 5443729.2701110765 9052371.377569875 12335429.156919619 9754874.247727087 7192593.401939747 8791847.63774846 6986181.558380372 4220024.129663211 4791578.568778075 5306517.907963537
VECTORS principal_stress_1 float
7872164.452901177 3530761.0121387886 0.0
12640354.162835017 -1023873.7412333788 0.0
9846875.787662584 -1517244.7406474084 0.0
12741208.99838738 957198.3648240777 0.0
8589382.416639699 492217.0960016775 0.0
6637351.118418157 157788.6467369555 0.0
10012095.866626564 1643662.4577408442 0.0
10100622.155261418 -982236.2947362461 0.0
7447463.406811166 -345289.3582290683 0.0
6689158.452349505 493238.1032525831 0.0
5632345.083170741 325164.9668702392 0.0
9374740.317126693 462807.5571988011 0.0
8345854.242980607 -87233.21477505336 0.0
9005913.564250696 -406295.3130579174 0.0
11398479.902006842 -408683.6697694487 0.0
6324990.751274875 -210014.3194526946 0.0
9294873.670725254 104674.64177426277 0.0
9440941.2157773 54296.8369229811 0.0
6654799.644617428 -416963.65133085503 0.0
10146452.943282763 968102.133800536 0.0
7170983.591662724 495813.34029460023 0.0
9129826.25037308 71445.38738069824 0.0
9350486.320286417 -337489.6946058576 0.0
6834285.65283513 -47341.23662354323 0.0
8066506.98170846 -567012.3359303498 0.0
8148071.696327131 657205.742758363 0.0
9169669.140984021 -305992.82096527144 0.0
10398045.353693837 380549.4708178674 0.0
10485210.660338795 -173942.07800385362 0.0
7955421.523364319 17242.69791061685 0.0
7159540.474868282 33095.98014113413 0.0
6236912.31116223 -1307961.4853547425 0.0
7097409.559804615 -68681.06588462752 0.0
9548693.69158158 16204.487861695236 0.0
8291291.820670525 1114111.2284807698 0.0
8939994.247249248 -414029.5499207643 0.0
6786571.772546861 -59968.64738052312 0.0
9054631.17946342 407472.94752467424 0.0
6496221.923835852 -528849.1944692777 0.0
7659401.645158771 1001036.6017367694 0.0
8662454.745037073 -259182.57613390815 0.0
10599697.034741685 261763.05660814102 0.0
9434626.393630562 39983.120595045984 0.0
10183106.6777327 -267145.13514131855 0.0
6460822.065970386 -284365.48467206 0.0
10405645.404704213 287115.84652912704 0.0
6918446.342349712 -161029.2243311461 0.0
9804219.614558721 -2138107.8359271674 0.0
6618551.719894081 71458.28559256477 0.0
6438454.058668817 1289684.56854009 0.0
10357104.507811047 -277278.6184426384 0.0
6405353.226948471 -17472.316699863753 0.0
8949334.786301522 -620464.670350134 0.0
8912217.480464797 -305891.753969505 0.0
6791161.017461579 -209460.48016215014 0.0
6266128.557268287 415148.9805525702 0.0
10481621.627234545 -394856.57835287927 0.0
8635515.123856165 -422902.76811508456 0.0
6924233.168867319 -195725.83342991731 0.0
8883046.1800433 107100.48463191515 0.0
8903392.369951108 -112398.2793982424 0.0
9524884.108347787 -9155.967921331918 0.0
4418712.879022727 174903.3498272819 0.0
5037173.038420373 1325045.5857299552 0.0
13266515.809121715 -1698210.27663258 0.0
2918427.6303557395 213515.0976059969 0.0
7722460.561290582 -2819541.6565237558 0.0
6887658.479061464 -1585178.9516066092 0.0
4970904.022438167 -727133.889634404 0.0
5270086.244947528 -999084.3633507242 0.0
5561142.693934842 816820.6440192469 0.0
9244615.718360802 1982385.6125968604 0.0
12696884.843207259 1022496.8275763936 0.0
10281736.96775093 1391290.440288738 0.0
7514357.947958984 1278043.9967814924 0.0
9109269.70712179 -2475771.5081918924 0.0
7298016.952874459 -1134149.6500192191 0.0
4288107.801570268 -714265.7193913201 0.0
5070957.766471345 -1098139.4036070888 0.0
5551693.666691822 1080893.6164936048 0.0
VECTORS principal_stress_2 float
-3530761.012138788 7872164.452901177 0.0
1023873.7412333799 12640354.162835017 0.0
1517244.7406474098 9846875.787662584 0.0
-957198.3648240785 12741208.99838738 0.0
-492217.0960016779 8589382.416639699 0.0
-157788.64673695515 6637351.118418157 0.0
-1643662.4577408442 10012095.866626564 0.0
982236.2947362459 10100622.155261418 0.0
345289.35822906805 7447463.406811166 0.0
-493238.1032525821 6689158.452349505 0.0
-325164.9668702391 5632345.083170741 0.0
-462807.5571988013 9374740.317126693 0.0
87233.21477505464 8345854.242980607 0.0
406295.31305791874 9005913.564250696 0.0
408683.66976944887 11398479.902006842 0.0
210014.31945269473 6324990.751274875 0.0
-104674.6417742619 9294873.670725254 0.0
-54296.83692298128 9440941.2157773 0.0
416963.6513308557 6654799.644617428 0.0
-968102.1338005348 10146452.943282763 0.0
-495813.34029459953 7170983.591662724 0.0
-71445.38738069795 9129826.25037308 0.0
337489.6946058584 9350486.320286417 0.0
47341.236623544 6834285.65283513 0.0
567012.335930351 8066506.98170846 0.0
-657205.7427583628 8148071.696327131 0.0
305992.8209652723 9169669.140984021 0.0
-380549.4708178669 10398045.353693837 0.0
173942.0780038533 10485210.660338795 0.0
-17242.697910616585 7955421.523364319 0.0
-33095.98014113345 7159540.474868282 0.0
1307961.4853547434 6236912.31116223 0.0
68681.06588462724 7097409.559804615 0.0
-16204.487861694408 9548693.69158158 0.0
-1114111.22848077 8291291.820670525 0.0
414029.54992076405 8939994.247249248 0.0
59968.64738052326 6786571.772546861 0.0
-407472.9475246741 9054631.17946342 0.0
528849.1944692779 6496221.923835852 0.0
-1001036.6017367692 7659401.645158771 0.0
259182.57613390888 8662454.745037073 0.0
-261763.05660814032 10599697.034741685 0.0
-39983.120595046006 9434626.393630562 0.0
267145.1351413185 10183106.6777327 0.0
284365.4846720599 6460822.065970386 0.0
-287115.8465291263 10405645.404704213 0.0
161029.22433114672 6918446.342349712 0.0
2138107.835927169 9804219.614558721 0.0
-71458.2855925645 6618551.719894081 0.0
-1289684.5685400893 6438454.058668817 0.0
277278.6184426398 10357104.507811047 0.0
17472.31669986413 6405353.226948471 0.0
620464.670350135 8949334.786301522 0.0
305891.7539695063 8912217.480464797 0.0
209460.4801621507 6791161.017461579 0.0
-415148.9805525699 6266128.557268287 0.0
394856.57835288055 10481621.627234545 0.0
422902.7681150861 8635515.123856165 0.0
195725.83342991822 6924233.168867319 0.0
-107100.48463191463 8883046.1800433 0.0
112398.27939824224 8903392.369951108 0.0
9155.967921332449 9524884.108347787 0.0
-174903.3498272815 4418712.879022727 0.0
-1325045.5857299543 5037173.038420373 0.0
1698210.2766325811 13266515.809121715 0.0
-213515.0976059965 2918427.6303557395 0.0
2819541.6565237558 7722460.561290582 0.0
1585178.9516066096 6887658.479061464 0.0
727133.8896344048 4970904.022438167 0.0
999084.3633507249 5270086.244947527 0.0
-816820.6440192471 5561142.693934842 0.0
-1982385.6125968595 9244615.718360804 0.0
-1022496.8275763929 12696884.843207259 0.0
-1391290.4402887386 10281736.96775093 0.0
-1278043.9967814926 7514357.9479589835 0.0
2475771.5081918924 9109269.70712179 0.0
1134149.6500192194 7298016.952874459 0.0
714265.7193913202 4288107.801570268 0.0
1098139.403607089 5070957.766471345 0.0
-1080893.6164936048 5551693.666691822 0.0
POINT_DATA 53
VECTORS displacements float
0.0 0.0 0.0
3.433694459482205e-05 2.6028079572926705e-06 0.0
3.96778737467921e-05 1.63959240338017e-06 0.0
7.046913867869784e-05 2.406312347420359e-06 0.0
7.524080509169809e-05 3.420146208368797e-06 0.0
0.00011501553751079198 8.495387870780322e-06 0.0
0.00011346380122956919 -1.8404109075182218e-06 0.0
7.225474778188163e-05 -1.9501755563482396e-06 0.0
6.906914726904338e-05 -6.897433205369477e-07 0.0
3.9057750482680194e-05 -1.3173505771373219e-06 0.0
3.444398548961264e-05 -2.5058682895320333e-06 0.0
0.0 0.0 0.0
1.99885913912606e-05 4.4139529880760345e-06 0.0
3.511009551943575e-05 2.1684590432474626e-06 0.0
5.477784854175082e-05 2.1708328841932043e-06 0.0
7.407352965684774e-05 2.996894659476744e-06 0.0
9.058344845712569e-05 5.461799406215832e-06 0.0
0.00010391231933059433 3.4792001551056452e-06 0.0
8.871619205944817e-05 -7.818549464219034e-07 0.0
7.15703336222658e-05 -1.5168968827092575e-06 0.0
5.40157053328003e-05 -1.3725961117950723e-06 0.0
3.5565993143911405e-05 -2.1388951041509938e-06 0.0
1.975102778552647e-05 -4.1663587185100544e-06 0.0
0.0 0.0 0.0
4.792782620954161e-05 8.183256954477219e-09 0.0
4.127839276420665e-05 -6.900973595374937e-07 0.0
5.9724369609112636e-05 9.303306161186966e-07 0.0
4.5292517519690316e-05 1.939841727399213e-07 0.0
6.163033151075966e-05 3.0773998619290225e-07 0.0
5.16395865731075e-05 3.993389041145477e-07 0.0
4.84418796899795e-05 6.33703835169685e-07 0.0
4.0792401643100484e-05 1.0569446145856725e-06 0.0
3.333563583312242e-05 2.7513147232004113e-06 0.0
3.827438215943418e-05 1.56221025768939e-07 0.0
2.9570423139108194e-05 1.3802821392965025e-06 0.0
3.347307285863162e-05 -2.2476860593734734e-06 0.0
1.3958120158357742e-05 6.640234199000775e-07 0.0
2.1925908443615144e-05 -1.01847691497824e-06 0.0
5.4432348660564026e-05 8.154886600279652e-07 0.0
5.77831714600468e-05 5.476884353673298e-07 0.0
6.427288103723442e-05 1.0582761036618954e-06 0.0
6.206609992447076e-05 5.876805413014552e-07 0.0
6.690996315244082e-05 4.58901506694977e-07 0.0
9.373651594292037e-06 -8.267420797336287e-07 0.0
9.660502442647979e-05 2.1564994968105693e-06 0.0
8.756091939144333e-05 1.8815664887645594e-06 0.0
9.567495249735363e-05 3.2281309441888376e-06 0.0
8.063547031408771e-05 3.8588232372397126e-06 0.0
7.143895704309991e-05 1.7194704892345358e-06 0.0
7.03439111631925e-05 2.3034119710633354e-06 0.0
7.544043334188162e-05 -9.651936370308029e-08 0.0
5.494443809843561e-05 7.73397388709843e-08 0.0
6.44205775213761e-05 1.3363761795968964e-06 0.0