# vtk DataFile Version 2.0
Really cool data
ASCII
DATASET POLYDATA
POINTS 50 float
0.0 0.0 0
0.125 0.0 0
0.125 0.025 0
0.175 0.025 0
0.175 0.0 0
0.3 0.0 0
0.3 0.1 0
0.175 0.1 0
0.175 0.07500000000000001 0
0.125 0.07500000000000001 0
0.125 0.1 0
0.0 0.1 0
0.06250000013078053 0.0 0
0.125 0.01250000001946666 0
0.1500000000542101 0.025 0
0.175 0.01249999996954492 0
0.2375000000379471 0.0 0
0.3 0.05000000007786663 0
0.2374999999024218 0.09999999999999999 0
0.175 0.08749999992410586 0
0.1499999998970008 0.07500000000000002 0
0.125 0.08749999998373698 0
0.06249999984482352 0.1 0
0.0 0.05000000007786663 0
0.1368030376589693 0.05881183609165548 0
0.117775623603241 0.06013038045187373 0
0.162500000027105 0.041237976310672 0
0.107309198575727 0.08007003580073291 0
0.19212308841714 0.01780898906300205 0
0.1901864428630649 0.07906464689515667 0
0.1094436020031466 0.01874551931480652 0
0.1291338851563814 0.04361389724778988 0
0.1114151539582876 0.04074826126195277 0
0.1624999999485004 0.06043297861285827 0
0.1787552186679302 0.06017424107710374 0
0.1459442698801169 0.044214050543324 0
0.08315066519904095 0.03531547250623295 0
0.08792340551106274 0.06122065477279754 0
0.04632429568687593 0.05307658962797577 0
0.172304892364689 0.04902546201312089 0
0.1850949657786914 0.04563198790008897 0
0.1965712954394372 0.05628532213281995 0
0.2087061817377232 0.03693437174515411 0
0.253205755539793 0.04383466385996593 0
0.2266612590318197 0.06518650077867166 0
0.1762118450318149 0.03854480335931212 0
0.1861593669885893 0.03182859057267874 0
0.02720607395441411 0.0257691474264606 0
0.1502126267551182 0.05641628411908355 0
0.2685302890076256 0.07336950662279432 0
POLYGONS 74 296
3 5 17 43
3 8 20 33
3 28 16 42
3 2 31 32
3 20 9 24
3 30 2 32
3 18 29 44
3 25 27 37
3 24 9 25
3 16 5 43
3 8 33 34
3 27 22 37
3 12 36 38
3 42 43 44
3 33 26 39
3 26 33 48
3 35 26 48
3 11 23 38
3 22 11 38
3 14 26 35
3 44 43 49
3 32 25 37
3 42 16 43
3 6 18 49
3 29 34 41
3 24 31 35
3 24 25 31
3 12 38 47
3 0 12 47
3 7 19 29
3 1 13 30
3 21 10 27
3 15 4 28
3 18 44 49
3 31 25 32
3 28 42 46
3 37 22 38
3 30 32 36
3 43 17 49
3 20 24 48
3 34 33 39
3 33 20 48
3 17 6 49
3 23 0 47
3 39 26 45
3 24 35 48
3 34 39 40
3 40 39 45
3 38 23 47
3 3 15 28
3 9 21 27
3 13 2 30
3 19 8 29
3 41 42 44
3 36 32 37
3 45 3 46
3 42 40 46
3 34 40 41
3 41 40 42
3 40 45 46
3 3 28 46
3 4 16 28
3 10 22 27
3 12 1 30
3 2 14 31
3 14 3 26
3 26 3 45
3 18 7 29
3 29 8 34
3 25 9 27
3 12 30 36
3 31 14 35
3 29 41 44
3 36 37 38
CELL_DATA 74
SCALARS mises double 1
LOOKUP_TABLE default
1964823.887822352 5104056.7664598115 1780866.4648309574 3181725.146963278 5009857.850909925 3131697.655376205 2018476.7059981972 2951426.243051757 3459432.1089632222 2603639.265413353 3684900.0483127297 1918153.9298510181 2457190.528150271 2269617.996637317 3424957.4476570105 3951540.957147879 3994151.0375443078 2032521.093189859 2226933.134843854 4058169.260034286 2229387.397341979 3017675.758036874 2350356.496624568 2846295.7637907546 3300806.6646552794 3824867.2592013525 3580151.2816601386 2300868.5477946196 2134922.7340479204 695267.1535406016 744595.8361098856 837539.2104172943 902294.3493764184 2243813.156057752 3479558.105457387 2878680.158014642 2498476.1278790375 2648752.708981105 1669642.6882082443 4210550.4176334385 3664340.96134297 4138698.9611438974 2421574.4753374574 1944854.2585114462 3796503.551920449 4165890.7536720196 3453494.4887956996 3180914.73207725 2083752.7262997346 1788194.11960732 2078441.5668135155 1945483.3574072537 2325600.95064886 2843919.719884304 3037688.6204893976 2854142.4894507322 2690451.2239006856 2975211.0075647146 3155130.8244031947 3457128.104869598 2902497.056593113 1426756.3195375171 1321282.6956037255 1325045.080725099 4791962.560786255 5053135.6416114075 3503007.0708596646 1422933.667220034 2945990.709385369 2874998.7512391224 1898074.3456978542 3876544.396410438 2360406.6543948837 2574345.650061792
VECTORS principal_stress_1 float
1910482.382434331 -423010.3209961526 0.0
5312519.3100397345 493439.1706353331 0.0
1789877.1918891186 -284417.37263984536 0.0
3362154.072942675 606669.6331469117 0.0
5229669.183710401 -501542.56764739257 0.0
3220047.782396372 472746.180914805 0.0
2004258.495304369 163034.730491973 0.0
3012431.6338844947 -574061.6976934848 0.0
3762813.9294103878 -784131.3682992067 0.0
2541067.249864373 -196207.08848755504 0.0
4010453.449371787 836462.8041148428 0.0
1836839.6048173518 -126217.65065233553 0.0
2374525.183858848 41794.826295046056 0.0
2176947.9237365774 24497.328120953942 0.0
3724752.910266148 44910.301801674694 0.0
4299818.996635766 96076.12732611605 0.0
4203120.816997729 -124980.72879597284 0.0
2217876.0360621857 -39731.72053504051 0.0
2228616.7131401543 -183922.7241945201 0.0
4178965.1620047144 -92831.27171547042 0.0
2271437.950436654 130876.25821967192 0.0
3008574.5430096253 74564.93878289801 0.0
2291430.7962354035 -216427.30999732172 0.0
2714419.832341996 250988.42917299463 0.0
3407000.7638064655 582837.7045235159 0.0
4113045.3818960297 15044.6114405197 0.0
3837477.922181608 101896.17995107094 0.0
2249619.687153905 126764.33695493624 0.0
2198733.682900777 158451.215244526 0.0
535725.9974537303 53801.94916648607 0.0
563079.8246101348 19834.34825545318 0.0
713059.4784588034 -66639.795021463 0.0
699649.5708090034 -16770.92170735692 0.0
2245424.4437268665 154733.67530869407 0.0
3587678.6519871904 -165387.97277505483 0.0
3001782.731708488 -662826.252449824 0.0
2432769.847478374 -27781.219292323312 0.0
2706320.0172905186 594533.1399574669 0.0
1670599.5106579058 239523.56232295287 0.0
4305895.915680726 -151057.9193090455 0.0
3910034.296766169 23518.312024626386 0.0
4228478.010188046 94913.65693687512 0.0
2292784.690244202 417788.16967684403 0.0
2123546.4125472545 104004.72465867805 0.0
4057491.5931852497 -103251.10981213395 0.0
4371952.999436969 -97132.1537722354 0.0
3631639.2391070956 183492.92899016786 0.0
3368258.09183038 -287024.10315782315 0.0
2150933.9644803465 17313.04835167499 0.0
2475856.2037324226 -1525579.002508933 0.0
2677953.692794777 -1484038.2468491788 0.0
2604359.0063143875 1532050.976532 0.0
2835653.1476234114 1418682.4455312374 0.0
2740569.100388 -33517.74586788002 0.0
2898548.992928449 -31090.446150603937 0.0
3123038.139876818 -700119.6393976818 0.0
2774935.929953779 -344533.61818194145 0.0
3067303.9818849657 -2034.3335477784963 0.0
3105469.21946927 68825.38799964904 0.0
3611596.620575784 -369003.8352613373 0.0
3056691.7187567516 -576188.1604250644 0.0
1644483.9942652003 -600220.225367481 0.0
1522120.2573639657 -558978.1881761001 0.0
1525821.053577169 560666.4950523146 0.0
5070516.583994251 652276.7330224931 0.0
5300900.874608339 -481844.2805534036 0.0
3838764.8375995043 -808319.3506061898 0.0
1655642.97230973 645358.7444307192 0.0
3127218.5162714743 521879.80051358877 0.0
3013647.1543334 -440064.66711963224 0.0
1818675.0917588524 90653.73529473168 0.0
4041766.6693540774 159404.16244223752 0.0
2406171.788944039 518564.584549423 0.0
2363742.233754478 25570.81555873097 0.0
VECTORS principal_stress_2 float
423010.3209961527 1910482.382434331 0.0
-493439.1706353332 5312519.3100397345 0.0
284417.3726398453 1789877.1918891186 0.0
-606669.6331469114 3362154.072942675 0.0
501542.5676473933 5229669.183710401 0.0
-472746.1809148045 3220047.782396372 0.0
-163034.730491973 2004258.495304369 0.0
574061.6976934851 3012431.6338844947 0.0
784131.3682992067 3762813.9294103878 0.0
196207.0884875552 2541067.249864373 0.0
-836462.8041148429 4010453.449371787 0.0
126217.65065233577 1836839.6048173518 0.0
-41794.82629504582 2374525.183858848 0.0
-24497.328120953865 2176947.9237365774 0.0
-44910.30180167473 3724752.910266148 0.0
-96076.12732611546 4299818.996635766 0.0
124980.7287959731 4203120.816997729 0.0
39731.72053504059 2217876.0360621857 0.0
183922.7241945203 2228616.7131401543 0.0
92831.27171547092 4178965.1620047144 0.0
-130876.25821967194 2271437.950436654 0.0
-74564.93878289816 3008574.5430096253 0.0
216427.30999732178 2291430.7962354035 0.0
-250988.42917299434 2714419.832341996 0.0
-582837.7045235158 3407000.7638064655 0.0
-15044.611440519287 4113045.3818960297 0.0
-101896.17995107072 3837477.922181608 0.0
-126764.33695493624 2249619.687153905 0.0
-158451.2152445259 2198733.682900777 0.0
-53801.949166486025 535725.9974537303 0.0
-19834.348255453137 563079.8246101348 0.0
66639.79502146298 713059.4784588034 0.0
16770.921707356934 699649.5708090034 0.0
-154733.6753086937 2245424.4437268665 0.0
165387.9727750549 3587678.6519871904 0.0
662826.2524498246 3001782.731708488 0.0
27781.21929232365 2432769.847478374 0.0
-594533.1399574667 2706320.0172905186 0.0
-239523.5623229527 1670599.5106579058 0.0
151057.9193090458 4305895.915680726 0.0
-23518.312024625815 3910034.296766169 0.0
-94913.65693687458 4228478.010188046 0.0
-417788.1696768441 2292784.690244202 0.0
-104004.72465867772 2123546.412547255 0.0
103251.10981213428 4057491.5931852497 0.0
97132.15377223556 4371952.999436969 0.0
-183492.92899016725 3631639.2391070956 0.0
287024.10315782315 3368258.09183038 0.0
-17313.04835167507 2150933.9644803465 0.0
1525579.002508933 2475856.2037324226 0.0
1484038.2468491788 2677953.692794777 0.0
-1532050.9765320001 2604359.006314387 0.0
-1418682.445531237 2835653.147623412 0.0
33517.745867879945 2740569.100388 0.0
31090.446150604363 2898548.992928449 0.0
700119.6393976822 3123038.139876818 0.0
344533.6181819417 2774935.929953779 0.0
2034.33354777838 3067303.9818849657 0.0
-68825.38799964853 3105469.21946927 0.0
369003.8352613372 3611596.620575784 0.0
576188.1604250644 3056691.7187567516 0.0
600220.2253674814 1644483.9942652003 0.0
558978.1881761001 1522120.2573639657 0.0
-560666.4950523145 1525821.053577169 0.0
-652276.7330224932 5070516.583994251 0.0
481844.2805534038 5300900.874608339 0.0
808319.3506061897 3838764.8375995043 0.0
-645358.7444307191 1655642.97230973 0.0
-521879.8005135883 3127218.5162714743 0.0
440064.6671196325 3013647.1543334 0.0
-90653.73529473176 1818675.0917588524 0.0
-159404.1624422372 4041766.6693540774 0.0
-518564.5845494228 2406171.788944039 0.0
-25570.815558730807 2363742.233754478 0.0
POINT_DATA 50
VECTORS displacements float
0.0 0.0 0.0
1.0686843761260673e-05 4.992859095504307e-07 0.0
1.3854746792768224e-05 2.3664381689163908e-07 0.0
2.6010303918921344e-05 -1.9105291045266232e-07 0.0
2.9017489654940872e-05 9.931310975315686e-08 0.0
4.1204449507988144e-05 2.9884282611277145e-07 0.0
4.22530688857564e-05 -2.9600552801850223e-06 0.0
2.9493305869525316e-05 -1.0564682604490143e-06 0.0
2.634804417003023e-05 -6.926632675204066e-07 0.0
1.3924202098809358e-05 -4.79455826047593e-07 0.0
1.0839294874993844e-05 -7.705614926932165e-07 0.0
0.0 0.0 0.0
6.517684465564997e-06 1.5004873364066828e-06 0.0
1.1213630390032224e-05 2.62201568593191e-07 0.0
1.9779942252453472e-05 3.897125025678148e-07 0.0
2.858608978543391e-05 -1.7659136207091438e-07 0.0
3.351228599245597e-05 6.136120035725463e-07 0.0
3.854797603968191e-05 -1.099497355516689e-06 0.0
3.3975356268635164e-05 -1.9165304239703395e-06 0.0
2.88985683587467e-05 -8.384386926287799e-07 0.0
2.008292684575166e-05 -9.675350036444628e-07 0.0
1.1377188022234151e-05 -5.553439498049075e-07 0.0
6.680564789170305e-06 -1.6178927960101283e-06 0.0
0.0 0.0 0.0
1.7380622558484287e-05 -2.30595919950837e-07 0.0
1.398007682841073e-05 -4.0224840048352427e-07 0.0
2.2450314482668233e-05 -3.3824204810674453e-07 0.0
1.1057894504145465e-05 -1.0107546703920598e-06 0.0
2.903108198895221e-05 2.4891447471505346e-07 0.0
2.8921965143253623e-05 -1.2739342117829571e-06 0.0
1.1014042145203319e-05 7.4588030255163e-07 0.0
1.5985520629143787e-05 -1.6174108068653036e-07 0.0
1.298217006266413e-05 1.4704647873124033e-07 0.0
2.2605335355373186e-05 -3.6972468329365923e-07 0.0
2.556991869131639e-05 -6.058504976511991e-07 0.0
1.9199603627565403e-05 -6.165660042342289e-08 0.0
8.969241345717845e-06 4.94607928558227e-07 0.0
9.662102675419423e-06 -5.748930919989315e-07 0.0
4.741460604011198e-06 -1.699345332443198e-07 0.0
2.420192300288823e-05 -3.8908369239721847e-07 0.0
2.6304873136449387e-05 -3.9575285383712373e-07 0.0
2.8113707137601865e-05 -7.617735227018197e-07 0.0
2.978216466050392e-05 -8.96670770700735e-08 0.0
3.4617322670379115e-05 -8.209445997991923e-07 0.0
3.2113440804722546e-05 -1.132643630621493e-06 0.0
2.5083185080896982e-05 -2.6412089331766575e-07 0.0
2.7047961016061594e-05 -1.1342445871865392e-07 0.0
2.664533452915226e-06 2.6162876648210094e-07 0.0
2.0130772450671168e-05 -3.7399287449418636e-07 0.0
3.678860159735725e-05 -1.3945435096459557e-06 0.0