# vtk DataFile Version 2.0
Really cool data
ASCII
DATASET POLYDATA
POINTS 60 float
0.0 0.0 0
0.125 0.0 0
0.125 0.0167 0
0.175 0.0167 0
0.175 0.0 0
0.3 0.0 0
0.3 0.1 0
0.175 0.1 0
0.175 0.08330000000000001 0
0.125 0.08330000000000001 0
0.125 0.1 0
0.0 0.1 0
0.06250000013078053 0.0 0
0.125 0.00835000001856792 0
0.1500000000542101 0.0167 0
0.175 0.008349999977976176 0
0.2375000000379471 0.0 0
0.3 0.05000000007786663 0
0.2374999999024218 0.09999999999999999 0
0.175 0.09164999996476342 0
0.1499999998970008 0.08330000000000001 0
0.125 0.09164999996476345 0
0.06249999984482352 0.1 0
0.0 0.05000000007786663 0
0.1375724472616825 0.06630250690192133 0
0.1173370865210781 0.06518594834038861 0
0.162500000027105 0.03293797628574772 0
0.1285078358433703 0.05073144617439911 0
0.1624999999485004 0.06706202370134177 0
0.1497212456625933 0.05304662816990189 0
0.1355953297594331 0.03365207392672718 0
0.1223560660435203 0.03425269860895874 0
0.1098995739036183 0.04507710940912857 0
0.1073840819831248 0.0837912468894828 0
0.1086899833504254 0.02007062828683285 0
0.08520107244739031 0.03500212345829645 0
0.08946740553284731 0.06261153303174485 0
0.05544839931928003 0.04725134656377596 0
0.1497452327901662 0.03795936313835725 0
0.161140467362832 0.04545129565903414 0
0.1743433574239664 0.04094154534709599 0
0.02898375311136626 0.07115534599271679 0
0.1499999999452595 0.06524536730403606 0
0.1397868656111352 0.04570975014000152 0
0.02799864862840197 0.02942925436951421 0
0.2646577221686179 0.06707215275039158 0
0.2303194570634477 0.05231828743074837 0
0.2089418438492296 0.08157573393032916 0
0.1994146517052651 0.05626197034443038 0
0.1957462887239947 0.02611707201608794 0
0.1837473549675801 0.0860987432285596 0
0.186679334197535 0.072724119481626 0
0.1792176839545702 0.05795052552790433 0
0.2664954358540025 0.03387808805180131 0
0.1869175101970145 0.04218403996648463 0
0.1825122449490355 0.03059311417109013 0
0.1693495193574774 0.05214153926039874 0
0.1758492545251514 0.07025916717771802 0
0.1738474199437215 0.02891096867415336 0
0.1585422464553325 0.05658937081894253 0
POLYGONS 94 376
3 31 32 34
3 9 21 33
3 20 9 24
3 13 2 34
3 2 14 30
3 24 9 25
3 2 30 31
3 52 28 56
3 30 27 31
3 29 24 43
3 28 52 57
3 27 30 43
3 24 27 43
3 12 34 35
3 33 22 36
3 40 52 56
3 56 28 59
3 14 26 38
3 49 48 54
3 16 46 49
3 0 12 44
3 22 11 41
3 32 25 36
3 31 27 32
3 24 25 27
3 25 33 36
3 27 25 32
3 16 5 53
3 24 29 42
3 39 26 40
3 6 18 45
3 46 18 47
3 30 14 38
3 47 50 51
3 28 20 42
3 36 22 37
3 52 40 54
3 5 17 53
3 48 51 52
3 46 48 49
3 37 41 44
3 45 46 53
3 48 47 51
3 49 54 55
3 52 51 57
3 46 16 53
3 45 18 46
3 3 55 58
3 12 35 37
3 2 31 34
3 37 22 41
3 46 47 48
3 41 23 44
3 25 9 33
3 40 26 58
3 20 24 42
3 11 23 41
3 39 40 56
3 54 40 55
3 23 0 44
3 34 32 35
3 55 40 58
3 38 26 39
3 17 6 45
3 29 38 39
3 12 37 44
3 35 36 37
3 28 42 59
3 38 29 43
3 42 29 59
3 50 8 51
3 51 8 57
3 7 19 50
3 29 39 59
3 17 45 53
3 19 8 50
3 39 56 59
3 35 32 36
3 30 38 43
3 48 52 54
3 12 1 34
3 18 7 47
3 47 7 50
3 1 13 34
3 14 3 26
3 3 15 49
3 26 3 58
3 3 49 55
3 15 4 49
3 4 16 49
3 8 20 28
3 8 28 57
3 21 10 33
3 10 22 33
CELL_DATA 94
SCALARS mises double 1
LOOKUP_TABLE default
8770308.699935518 7161651.763600309 11671688.911144575 8397293.267159956 11657662.866128631 8705672.151983496 8743909.654834935 8121577.005474902 8592807.586512549 8725986.309478698 9091120.139457252 8610821.677662173 8007379.653615367 6258555.543167173 5893269.61153402 8674594.808962185 8532347.584004289 9483581.821629094 8476572.410475608 6721720.606345096 6484268.898983079 6500178.020166813 7832056.741142965 7872421.580704761 8518625.165560288 8027512.239163628 8547780.606288468 8426473.331026394 9306906.122424953 8317776.720990767 8391133.70355951 6326112.515936956 9473813.111216905 6057963.986945783 9520950.227429137 7245084.186632576 8384759.196374306 6603442.411080552 8089618.268487439 7115670.1198113095 6570437.870358978 6360527.058838628 7403069.919701186 7943713.642506383 8274337.967880945 6209691.014668654 6255403.482725536 8254004.003108759 7151090.458015325 7132669.883433329 6977437.371699395 7380044.996260502 6085787.550965374 7272706.136422241 9303764.857768659 9449849.641485618 5939473.261455709 8582265.669505717 8599891.363475895 5942869.522115118 7334086.85629854 7855082.425307195 8983754.185454872 6691108.552299858 8600724.66049446 6919138.8248924455 7398024.382817904 9245422.222719938 8524575.887510138 8860333.254624145 8620915.637051387 7643778.940476427 1946077.0748375761 8708883.760062065 4180769.188739934 7204344.825986281 8250144.223565403 8353992.072905365 9098205.337520309 7819604.084335784 4820155.4593681935 5042079.637496576 5902127.749332383 3530145.9020094876 11857838.030143145 8648623.061977576 8521552.797812622 6990445.817652121 4420081.163928576 5191242.679911409 11830911.413254272 8489214.157768028 3610150.9135576617 4801760.812213635
VECTORS principal_stress_1 float
8820401.036596932 593907.161533028 0.0
7998360.193628862 -3333396.283608887 0.0
12019730.508823616 -841497.6007849829 0.0
8844541.548028069 2837611.0632451726 0.0
12068717.18848791 974353.0054759878 0.0
9181903.206496304 -1393595.9383474428 0.0
9236723.522114161 1332512.1802063026 0.0
8637687.892567873 47088.05624805177 0.0
9040948.46446725 -2270.88135259886 0.0
9369669.177202716 -185292.37679006808 0.0
9434451.222621743 610729.7228583103 0.0
9203837.14564846 387062.76175444445 0.0
8582813.584760873 -263945.54024332797 0.0
6079347.917401113 128693.40277301244 0.0
5726536.740431752 -255310.46448614862 0.0
9030272.839603445 -191510.14701555824 0.0
9158229.447407646 328318.67072339257 0.0
9736878.531069048 -253857.26247371733 0.0
8476485.904625494 -347128.0758958291 0.0
6747215.091184514 -375445.7332442896 0.0
6729356.228065217 473015.97968016396 0.0
6733106.552698153 -465080.215756054 0.0
7784285.368045039 -20849.020609478863 0.0
8130869.803545467 464765.3520422772 0.0
8936200.656964982 6806.835867793929 0.0
8063688.062549638 -959700.524124273 0.0
8685222.783193814 -364423.8769518906 0.0
8179577.274895694 -638992.6174155746 0.0
9793208.2287436 -212039.28567960908 0.0
8913518.216750987 -201763.92235026255 0.0
8158179.212989355 614196.5589309582 0.0
6321727.938196454 417204.001488486 0.0
9732119.72119736 227206.73303625197 0.0
6378749.666032007 1731368.3050028926 0.0
9744369.85241009 260582.87799464253 0.0
7051338.052436594 -43176.211186023786 0.0
8655843.7362487 29075.44162741052 0.0
6249833.780294084 -1287113.8981782994 0.0
8132986.958418655 761921.2880334285 0.0
6991563.730789059 -414081.28561017994 0.0
6855976.059733633 52661.295974454544 0.0
6635932.462393321 30972.579433379633 0.0
7349301.3869608985 513318.89245882054 0.0
7974059.392861046 -345427.61416051636 0.0
8504519.281256003 418493.44541709643 0.0
6186362.873928852 -356066.9868064523 0.0
6248006.559864367 389357.16090563894 0.0
8754948.511656715 -1639440.4108819182 0.0
6959643.469027586 22647.58603851407 0.0
7407234.563126861 958557.9159973698 0.0
6798204.258168066 -238514.8223264284 0.0
7317279.801999472 531084.260869683 0.0
6325319.985000051 -11236.568721783899 0.0
7444451.5835653795 -806314.9500031341 0.0
9734844.840633798 -605540.7108653435 0.0
9665599.118512582 -245573.92320486924 0.0
6484617.933376752 -297750.9702899509 0.0
9016855.379106864 -5369.457195605247 0.0
8753193.887365628 -562128.9800803284 0.0
6487750.3537991615 276433.3531306306 0.0
7233803.392998434 778367.9567845693 0.0
8146854.54252065 -582177.5290167144 0.0
9619208.513498312 -480099.1906379032 0.0
6337766.546693431 1298301.520303325 0.0
9135684.343580065 -115400.09138943804 0.0
6754258.641859604 232569.16712386912 0.0
6959533.7346755015 33426.49286277729 0.0
9847854.868623316 482102.91117688117 0.0
9052315.652344573 69173.86463751578 0.0
9295297.590821687 119889.25553648832 0.0
8963267.032592317 1569427.0503614706 0.0
8148865.437969126 1463037.4796512402 0.0
978571.4804161529 -52383.23429031756 0.0
9355068.33029887 81897.26600274912 0.0
4235609.639866007 -27779.161824032846 0.0
7934624.071082183 3296779.444381635 0.0
8843436.44852888 -28694.829665182067 0.0
8044096.841565573 -39389.06242829939 0.0
9693436.828363204 449864.77267571114 0.0
7929354.164567183 -295384.7266742954 0.0
5139049.202211563 1190158.6537392384 0.0
5359987.956763255 1035080.6095021878 0.0
6244304.05337065 1545532.3208635722 0.0
3487417.339352761 477889.5496079607 0.0
12220806.292871552 -895291.0468179503 0.0
8859478.084599942 -2250639.4563256437 0.0
9039407.915738672 -1589721.058322971 0.0
7362871.668986204 -1335025.595178619 0.0
4459912.327258215 -696186.8318029601 0.0
5514571.903403053 -1213759.3450483116 0.0
12215376.438607512 955556.90997742 0.0
9082868.340313865 1589131.0400011123 0.0
3433704.9182714354 -238646.96200839127 0.0
5150464.90250359 -1195780.0829243318 0.0
VECTORS principal_stress_2 float
-593907.1615330271 8820401.036596932 0.0
3333396.2836088873 7998360.193628862 0.0
841497.6007849845 12019730.508823616 0.0
-2837611.0632451717 8844541.548028069 0.0
-974353.0054759859 12068717.18848791 0.0
1393595.9383474423 9181903.206496304 0.0
-1332512.1802063019 9236723.522114161 0.0
-47088.05624805196 8637687.892567873 0.0
2270.881352598987 9040948.46446725 0.0
185292.37679006904 9369669.177202716 0.0
-610729.7228583088 9434451.222621743 0.0
-387062.76175444433 9203837.14564846 0.0
263945.54024332785 8582813.584760873 0.0
-128693.40277301148 6079347.917401113 0.0
255310.4644861484 5726536.740431752 0.0
191510.14701555937 9030272.839603445 0.0
-328318.67072339234 9158229.447407646 0.0
253857.2624737175 9736878.531069048 0.0
347128.07589583006 8476485.904625494 0.0
375445.7332442897 6747215.091184514 0.0
-473015.9796801633 6729356.228065217 0.0
465080.2157560538 6733106.552698153 0.0
20849.02060947876 7784285.368045039 0.0
-464765.35204227705 8130869.803545467 0.0
-6806.835867793977 8936200.656964982 0.0
959700.5241242734 8063688.062549638 0.0
364423.8769518903 8685222.783193814 0.0
638992.6174155751 8179577.274895694 0.0
212039.28567960943 9793208.2287436 0.0
201763.92235026293 8913518.216750987 0.0
-614196.5589309586 8158179.212989355 0.0
-417204.00148848584 6321727.938196454 0.0
-227206.73303625057 9732119.72119736 0.0
-1731368.3050028915 6378749.666032007 0.0
-260582.8779946414 9744369.85241009 0.0
43176.21118602491 7051338.052436594 0.0
-29075.44162740922 8655843.7362487 0.0
1287113.8981782997 6249833.780294084 0.0
-761921.2880334284 8132986.958418655 0.0
414081.2856101799 6991563.730789059 0.0
-52661.29597445403 6855976.059733633 0.0
-30972.57943337864 6635932.462393321 0.0
-513318.89245881943 7349301.3869608985 0.0
345427.61416051706 7974059.392861046 0.0
-418493.44541709573 8504519.281256003 0.0
356066.9868064522 6186362.873928852 0.0
-389357.1609056382 6248006.559864367 0.0
1639440.4108819193 8754948.511656715 0.0
-22647.58603851428 6959643.469027586 0.0
-958557.9159973697 7407234.563126861 0.0
238514.82232642954 6798204.258168065 0.0
-531084.260869682 7317279.801999472 0.0
11236.56872178464 6325319.985000051 0.0
806314.9500031339 7444451.5835653795 0.0
605540.710865344 9734844.840633798 0.0
245573.92320487055 9665599.118512582 0.0
297750.97028995113 6484617.933376752 0.0
5369.457195606367 9016855.379106864 0.0
562128.9800803297 8753193.887365628 0.0
-276433.35313063086 6487750.3537991615 0.0
-778367.9567845684 7233803.392998434 0.0
582177.5290167152 8146854.54252065 0.0
480099.19063790474 9619208.513498312 0.0
-1298301.520303324 6337766.546693431 0.0
115400.09138943834 9135684.343580065 0.0
-232569.16712386906 6754258.641859604 0.0
-33426.4928627765 6959533.7346755015 0.0
-482102.91117687995 9847854.868623316 0.0
-69173.86463751446 9052315.652344573 0.0
-119889.25553648874 9295297.590821687 0.0
-1569427.0503614708 8963267.032592317 0.0
-1463037.4796512404 8148865.437969126 0.0
52383.23429031768 978571.4804161529 0.0
-81897.26600274924 9355068.33029887 0.0
27779.161824033126 4235609.639866007 0.0
-3296779.444381634 7934624.071082183 0.0
28694.82966518185 8843436.44852888 0.0
39389.06242830039 8044096.841565573 0.0
-449864.7726757108 9693436.828363204 0.0
295384.7266742951 7929354.164567183 0.0
-1190158.6537392382 5139049.202211563 0.0
-1035080.6095021873 5359987.956763255 0.0
-1545532.3208635726 6244304.05337065 0.0
-477889.54960796057 3487417.339352761 0.0
895291.046817951 12220806.292871552 0.0
2250639.456325644 8859478.084599942 0.0
1589721.0583229708 9039407.915738672 0.0
1335025.5951786202 7362871.668986204 0.0
696186.8318029603 4459912.327258215 0.0
1213759.3450483123 5514571.903403053 0.0
-955556.909977419 12215376.438607512 0.0
-1589131.0400011118 9082868.340313865 0.0
238646.96200839145 3433704.9182714354 0.0
1195780.0829243315 5150464.90250359 0.0
POINT_DATA 60
VECTORS displacements float
0.0 0.0 0.0
3.4701105424848625e-05 2.6005949056184804e-06 0.0
3.90947217334065e-05 1.5299660876314727e-06 0.0
6.785359540849245e-05 1.3632936138702128e-06 0.0
7.132901956414111e-05 2.5038627276899954e-06 0.0
0.00011208582481284898 3.6761424573269962e-06 0.0
0.00011301716100610437 -6.8299208229931715e-06 0.0
7.273735507045355e-05 -2.9719681410744597e-06 0.0
6.809280267434985e-05 -1.7061844052690985e-06 0.0
3.937441174908858e-05 -1.6551991076663768e-06 0.0
3.47269499537372e-05 -2.6463701249866615e-06 0.0
0.0 0.0 0.0
1.9883388944191916e-05 4.293220342770535e-06 0.0
3.553865577879363e-05 2.2620013857108995e-06 0.0
5.3368153769838925e-05 1.7141269807939761e-06 0.0
7.056886307446921e-05 2.1367952497503463e-06 0.0
8.727694813470211e-05 2.060115526500793e-06 0.0
0.00010211688431779307 -1.5549188433533696e-06 0.0
8.828368322680102e-05 -3.982975434594016e-06 0.0
7.227787354823986e-05 -2.385097860127831e-06 0.0
5.362789010973893e-05 -2.02163293748358e-06 0.0
3.5400779529953195e-05 -2.231878887138828e-06 0.0
1.9911719209552763e-05 -4.355314638349708e-06 0.0
0.0 0.0 0.0
4.785540811951925e-05 -4.2885035827287024e-07 0.0
3.937474263770602e-05 -1.0538826107824645e-06 0.0
5.925266707254914e-05 1.8030522548606662e-07 0.0
4.454645264495232e-05 -7.168051232558862e-08 0.0
5.937745599903189e-05 -5.372766503991718e-07 0.0
5.337290729774444e-05 -1.9249614771381686e-07 0.0
4.680581707288813e-05 2.9330996804248475e-07 0.0
4.120256107153932e-05 8.57342899907292e-07 0.0
3.704172310616616e-05 3.918395473266955e-07 0.0
3.307647826500154e-05 -2.7279707884548883e-06 0.0
3.398419015596983e-05 2.4754374737870977e-06 0.0
2.737691472195463e-05 1.511366094417546e-06 0.0
2.8977849917321194e-05 -1.4152478826320347e-06 0.0
1.725237916504537e-05 2.3739569872382876e-07 0.0
5.33779538776303e-05 2.6674034328597753e-07 0.0
5.825443980256701e-05 -9.730505894201051e-08 0.0
6.389556624106514e-05 1.9202937997866896e-07 0.0
8.669036123601438e-06 -7.977856150799693e-07 0.0
5.357273954491483e-05 -7.271969220212511e-07 0.0
4.91594737417794e-05 -3.485659455421355e-08 0.0
8.37917993514535e-06 7.15347387817603e-07 0.0
9.504899860675293e-05 -1.8599666093753613e-06 0.0
8.41204149886606e-05 -1.0568534927332775e-06 0.0
7.88468850918162e-05 -3.0309998291589034e-06 0.0
7.353449781348945e-05 -9.186597453699609e-07 0.0
7.334987976378747e-05 1.5450984789077957e-06 0.0
7.248839891174526e-05 -2.5976927973434208e-06 0.0
7.02913504104058e-05 -1.9861249446387973e-06 0.0
6.585076429807234e-05 -7.278458291097527e-07 0.0
9.524446064479935e-05 -7.019574436775879e-07 0.0
6.905576136281914e-05 1.9648359199571815e-07 0.0
6.803162081475576e-05 9.82148623775275e-07 0.0
6.168193386483477e-05 -3.079026842552586e-07 0.0
6.567812289048882e-05 -1.2892110267255244e-06 0.0
6.485438431618594e-05 7.806896466122675e-07 0.0
5.725715450315165e-05 -2.9489302388511573e-07 0.0