# vtk DataFile Version 2.0
Really cool data
ASCII
DATASET POLYDATA
POINTS 56 float
0.0 0.0 0
0.125 0.0 0
0.125 0.01338 0
0.175 0.01338 0
0.175 0.0 0
0.3 0.0 0
0.3 0.1 0
0.175 0.1 0
0.175 0.08662 0
0.125 0.08662 0
0.125 0.1 0
0.0 0.1 0
0.06250000013078053 0.0 0
0.125 0.006690000016182966 0
0.1500000000542101 0.01338 0
0.175 0.006689999981735132 0
0.2375000000379471 0.0 0
0.3 0.05000000007786663 0
0.2374999999024218 0.09999999999999999 0
0.175 0.0933099999539214 0
0.1499999998970008 0.08662 0
0.125 0.09330999997018445 0
0.06249999984482352 0.1 0
0.0 0.05000000007786663 0
0.1368771788121485 0.07032837576929338 0
0.1229011411997333 0.06992889336025539 0
0.162500000027105 0.02961797628574772 0
0.1303270971652274 0.05656551433699614 0
0.1446906142853096 0.05509544274146649 0
0.136887329466222 0.0301859333400595 0
0.1192783483698687 0.02822902768531031 0
0.1641812139199678 0.0703143048338146 0
0.1108264226576718 0.08169422020431105 0
0.1094952554221643 0.01424561801804185 0
0.09621806775827037 0.03655060487846695 0
0.0521957028650334 0.04814481900641465 0
0.08134742175279576 0.06520549758937177 0
0.1491695589262108 0.03967028316149593 0
0.1115398902192038 0.05789306591579536 0
0.1377933066487571 0.04523287230840897 0
0.1608590849356071 0.05143291106045271 0
0.1774547256087936 0.0393512606778316 0
0.1797415261853187 0.05762754054557861 0
0.1958990834671783 0.048648719060749 0
0.1930986113129204 0.07600823828387368 0
0.2261068842555297 0.05009827830581134 0
0.1780053378545517 0.07264252091581672 0
0.1921754142088219 0.02310240345856095 0
0.1767825349611801 0.02636291010553507 0
0.02737223308484468 0.0712204678908683 0
0.2655974819869804 0.06598259369836738 0
0.1220073399379249 0.04244283641083953 0
0.1503440280639494 0.06751301017950707 0
0.02686027956432914 0.02952707011857444 0
0.2658408732560915 0.03321617441640907 0
0.150000000024617 0.0269681180691344 0
POLYGONS 86 344
3 40 31 52
3 26 3 48
3 8 31 46
3 20 9 24
3 37 26 40
3 1 13 33
3 2 14 29
3 9 21 32
3 24 9 25
3 32 36 38
3 35 34 36
3 31 40 42
3 25 32 38
3 13 2 33
3 16 45 47
3 28 40 52
3 12 33 34
3 32 22 36
3 12 34 35
3 2 29 30
3 40 26 41
3 0 12 53
3 22 11 49
3 31 42 46
3 36 34 38
3 28 37 40
3 24 25 27
3 24 27 28
3 22 35 36
3 6 18 50
3 31 20 52
3 16 5 54
3 35 49 53
3 34 30 51
3 42 44 46
3 18 44 45
3 14 26 55
3 38 34 51
3 35 22 49
3 27 25 38
3 49 23 53
3 3 47 48
3 25 9 32
3 28 27 39
3 20 24 52
3 17 6 50
3 40 41 42
3 29 39 51
3 11 23 49
3 5 17 54
3 23 0 53
3 30 29 51
3 12 35 53
3 29 14 55
3 24 28 52
3 2 30 33
3 27 38 51
3 29 37 39
3 26 37 55
3 37 28 39
3 18 45 50
3 45 16 54
3 44 43 45
3 41 26 48
3 42 43 44
3 39 27 51
3 42 41 43
3 37 29 55
3 50 45 54
3 47 41 48
3 33 30 34
3 17 50 54
3 43 41 47
3 12 1 33
3 18 7 44
3 14 3 26
3 3 15 47
3 15 4 47
3 4 16 47
3 7 19 44
3 19 8 44
3 8 20 31
3 44 8 46
3 21 10 32
3 10 22 32
3 45 43 47
CELL_DATA 86
SCALARS mises double 1
LOOKUP_TABLE default
8439418.41627847 8061315.557773819 8059019.842679079 10699300.765230563 8161589.624501674 3767719.534668262 10660136.898016127 8583572.401977854 8292252.712522608 7198093.792036653 7260406.219285162 7655452.022074747 8301652.8242842695 7383436.581528666 6571896.157744115 7916668.190620868 5906921.930008671 6329675.998965376 7165857.050566662 8067592.665918547 7661233.498055754 6474252.128191072 6478442.442051643 8477958.895843271 7771640.576465769 7837654.4422460925 8195827.110062339 7695529.238566876 7026911.958168465 8379334.526340003 8675267.175890379 8411448.353599919 6473511.315869559 7491466.592291671 7637059.805932744 6593790.0197789185 8753096.507850263 7879498.79968572 6855656.031424114 7703772.288563356 6055090.492268758 7148888.041128343 6912566.96166952 7778033.753538186 8768565.063593483 6608446.987497344 7983567.512951082 7720396.517595107 5942882.404806264 6677273.336491757 5924489.747013756 8342457.759068381 6865296.149854717 8764832.484974736 8564678.374658095 6901492.85400331 7784132.051545607 8193829.617515845 8660709.10682675 7841574.630749267 6184793.943026868 6214167.493237782 7030497.2783540785 8569452.160988528 7977968.944775076 7890441.512432645 7227002.415812725 8699413.391143873 6315984.64373772 7615632.198860151 7815563.2375707915 4165818.317282158 7989809.742669184 5190113.988316496 5550371.915521443 10798856.880060809 8686725.761878505 4597941.558862454 5544617.635917405 4715025.097940227 8630959.500313919 10743074.184897933 7118925.846520372 3843803.8446041755 5191030.262239886 7135367.531277373
VECTORS principal_stress_1 float
8929592.448578147 297305.8110833173 0.0
8436739.276186028 -1281090.4438744145 0.0
8390453.298846312 1233730.5024758945 0.0
10972044.496094704 -678498.5372734132 0.0
8660517.7980944 -212063.0670648289 0.0
3637666.8259494766 148344.20830251332 0.0
10929206.37907773 677945.9831390162 0.0
8697633.62764201 -2214508.4884820464 0.0
8669557.430224918 -1090621.8074592093 0.0
7118655.37496132 -675531.7046118784 0.0
6951464.015286773 -7028.67646147119 0.0
8098733.699812114 184737.29495164502 0.0
8334995.38337244 -468183.3754362402 0.0
7858359.874995604 2817438.3445446165 0.0
6628087.502885583 -348762.33982079825 0.0
8283497.261494477 4205.604615322175 0.0
5803636.9221741585 303313.6905426465 0.0
6176982.1988996975 -57056.235072332696 0.0
6993326.9996844 5882.260439481957 0.0
8427171.258904098 1113304.0554951804 0.0
8121332.638748766 -86754.0872113215 0.0
6736078.503835631 459326.36723329825 0.0
6746653.200592947 -440526.527405946 0.0
8653201.216394642 270017.27342431626 0.0
7534612.4648601385 114214.18948316423 0.0
8295920.642100606 -39207.53264583971 0.0
8568371.808184756 -37653.29674971178 0.0
8174267.242730061 -274700.2070023754 0.0
6884910.259885474 5175.635345088934 0.0
8171762.897126313 607403.1858242837 0.0
8879833.078332668 151095.95368065967 0.0
8191947.320745242 -611218.289600272 0.0
6795787.966982606 25984.708152148534 0.0
7591335.513153605 416342.5259543035 0.0
7740095.225122724 320194.20183007483 0.0
6650926.025508019 352656.5574223369 0.0
8918449.748596571 -159183.27996842016 0.0
7842219.655260968 -131488.12500436275 0.0
6771911.731734436 -241328.49545620172 0.0
7872721.793729457 -446826.7416078582 0.0
6337251.4152863175 3881.6274875022414 0.0
7450313.909394335 -1248181.6813386185 0.0
7117817.893861902 -839879.5133367355 0.0
8226891.814550919 45948.43854031383 0.0
8976370.576279592 -151244.29703764713 0.0
6248371.384232113 1291696.1451411669 0.0
8261152.436909594 -93214.46212238217 0.0
8163630.255285149 175322.57210521452 0.0
6487527.009233306 -267052.7725870559 0.0
6309267.359727035 -1292131.4878892037 0.0
6467255.157807714 258331.16841722897 0.0
8555674.008991074 205937.6157406337 0.0
6739301.810437992 229333.91946573986 0.0
8931061.874125862 136374.2889430779 0.0
9038008.083680911 -241540.49704960038 0.0
7068215.630861414 757845.01876171 0.0
7973212.0563390665 156112.0886346762 0.0
8675660.54326093 333349.51035245083 0.0
8955324.079686433 -149689.59413356954 0.0
8310239.330169086 -64.04714578857283 0.0
6204789.2277409565 370509.09044032084 0.0
6239301.371684008 -358379.8093414624 0.0
6960130.762223877 421333.1418237879 0.0
8788121.950802058 -397763.20876946615 0.0
7993269.542612492 359035.3605880922 0.0
8233585.354767948 -117185.38007413335 0.0
7421943.983201948 -5802.523033307903 0.0
9025237.063656984 221261.81432336723 0.0
6602322.573673924 -17297.200624674635 0.0
7740064.727103184 -413482.5903607486 0.0
7872256.236011736 711349.358018937 0.0
4236409.395523289 -34759.541813803306 0.0
7992970.4962667255 -424204.1200953086 0.0
5449968.75166355 1037490.6389049566 0.0
5796754.587248366 1052096.9498462598 0.0
11062829.609811299 -714627.3477235616 0.0
8706306.870921504 -1795050.101475931 0.0
4592531.966681143 -577112.5973440177 0.0
5803052.346995249 -1082671.1570906297 0.0
4725773.444301546 599022.3889020847 0.0
8657561.272234889 1760077.7367100522 0.0
11027510.119593909 793144.6689276475 0.0
7389070.784160814 1214669.1302093545 0.0
3792506.33950948 -414649.63076269836 0.0
5432103.490424782 -1031754.06063363 0.0
7069244.887207079 -472069.5729970131 0.0
VECTORS principal_stress_2 float
-297305.8110833165 8929592.448578147 0.0
1281090.4438744148 8436739.276186028 0.0
-1233730.5024758934 8390453.298846314 0.0
678498.5372734148 10972044.496094704 0.0
212063.0670648285 8660517.7980944 0.0
-148344.208302513 3637666.8259494766 0.0
-677945.9831390153 10929206.37907773 0.0
2214508.4884820483 8697633.62764201 0.0
1090621.8074592107 8669557.430224918 0.0
675531.7046118792 7118655.37496132 0.0
7028.676461470996 6951464.015286773 0.0
-184737.29495164435 8098733.699812114 0.0
468183.37543624 8334995.38337244 0.0
-2817438.3445446156 7858359.874995604 0.0
348762.3398207982 6628087.502885583 0.0
-4205.604615322238 8283497.261494477 0.0
-303313.6905426455 5803636.922174159 0.0
57056.23507233313 6176982.1988996975 0.0
-5882.260439482133 6993326.9996844 0.0
-1113304.05549518 8427171.258904098 0.0
86754.08721132245 8121332.638748766 0.0
-459326.367233298 6736078.503835631 0.0
440526.5274059462 6746653.200592947 0.0
-270017.27342431626 8653201.216394642 0.0
-114214.18948316413 7534612.4648601385 0.0
39207.53264584098 8295920.642100606 0.0
37653.29674971201 8568371.808184756 0.0
274700.20700237586 8174267.242730061 0.0
-5175.635345088708 6884910.259885474 0.0
-607403.1858242836 8171762.897126313 0.0
-151095.953680659 8879833.078332668 0.0
611218.2896002718 8191947.320745242 0.0
-25984.708152148218 6795787.966982606 0.0
-416342.5259543025 7591335.513153605 0.0
-320194.2018300746 7740095.225122724 0.0
-352656.5574223367 6650926.025508019 0.0
159183.2799684202 8918449.748596571 0.0
131488.1250043631 7842219.655260968 0.0
241328.49545620233 6771911.731734436 0.0
446826.74160785874 7872721.793729457 0.0
-3881.6274875018944 6337251.4152863175 0.0
1248181.68133862 7450313.909394335 0.0
839879.5133367361 7117817.893861902 0.0
-45948.43854031245 8226891.814550919 0.0
151244.2970376476 8976370.576279592 0.0
-1291696.1451411657 6248371.384232113 0.0
93214.46212238292 8261152.436909594 0.0
-175322.57210521353 8163630.255285149 0.0
267052.77258705685 6487527.009233306 0.0
1292131.4878892037 6309267.359727035 0.0
-258331.16841722906 6467255.157807714 0.0
-205937.61574063398 8555674.008991074 0.0
-229333.91946573945 6739301.810437992 0.0
-136374.2889430783 8931061.874125862 0.0
241540.49704960108 9038008.083680911 0.0
-757845.01876171 7068215.630861414 0.0
-156112.08863467595 7973212.0563390665 0.0
-333349.5103524498 8675660.54326093 0.0
149689.5941335703 8955324.079686433 0.0
64.04714578976818 8310239.330169086 0.0
-370509.09044032055 6204789.2277409565 0.0
358379.80934146274 6239301.371684008 0.0
-421333.1418237868 6960130.762223877 0.0
397763.2087694664 8788121.950802058 0.0
-359035.3605880919 7993269.542612492 0.0
117185.38007413312 8233585.354767948 0.0
5802.523033308563 7421943.983201948 0.0
-221261.8143233672 9025237.063656984 0.0
17297.200624675675 6602322.573673924 0.0
413482.5903607486 7740064.727103184 0.0
-711349.358018936 7872256.236011736 0.0
34759.54181380398 4236409.395523289 0.0
424204.1200953094 7992970.4962667255 0.0
-1037490.6389049569 5449968.75166355 0.0
-1052096.949846259 5796754.587248366 0.0
714627.3477235626 11062829.609811299 0.0
1795050.101475931 8706306.870921504 0.0
577112.5973440179 4592531.966681143 0.0
1082671.1570906297 5803052.346995249 0.0
-599022.3889020842 4725773.444301546 0.0
-1760077.7367100525 8657561.272234889 0.0
-793144.6689276461 11027510.119593909 0.0
-1214669.1302093542 7389070.784160814 0.0
414649.6307626987 3792506.33950948 0.0
1031754.0606336303 5432103.490424782 0.0
472069.5729970134 7069244.887207079 0.0
POINT_DATA 56
VECTORS displacements float
0.0 0.0 0.0
3.5772430640821176e-05 2.8024698835010856e-06 0.0
3.885383781575743e-05 1.9309323100280987e-06 0.0
6.49925030792274e-05 2.0592648510373563e-06 0.0
6.745287469072907e-05 3.045484064888518e-06 0.0
0.00010922243260883247 5.909028393684186e-06 0.0
0.0001087831889354037 -4.673433329863617e-06 0.0
6.708174798661594e-05 -2.8160408235094473e-06 0.0
6.477088640769843e-05 -1.8426006576644367e-06 0.0
3.86389591569782e-05 -1.920380882956878e-06 0.0
3.576733144364017e-05 -2.883417827674667e-06 0.0
0.0 0.0 0.0
1.9882415761576822e-05 4.183925941584066e-06 0.0
3.612176294854952e-05 2.486950460191925e-06 0.0
5.1842191687994914e-05 2.0350905056691166e-06 0.0
6.689558850035877e-05 2.724777033701372e-06 0.0
8.440136419740084e-05 3.1637215154111118e-06 0.0
9.850584946554133e-05 5.893833936329177e-07 0.0
8.403534785537712e-05 -2.460029153522562e-06 0.0
6.65699478072706e-05 -2.4961767829844778e-06 0.0
5.167695865397115e-05 -1.8617325345221138e-06 0.0
3.629014831237464e-05 -2.59348998226009e-06 0.0
1.9907330916071727e-05 -4.0701883765361945e-06 0.0
0.0 0.0 0.0
4.608800370686711e-05 -5.893653092630503e-07 0.0
4.045758130538906e-05 -1.1730340681328268e-06 0.0
5.7120840185710334e-05 7.161322039854605e-07 0.0
4.408657913896831e-05 -2.6936277427325953e-07 0.0
4.963641973266528e-05 -9.841319099668499e-08 0.0
4.6214448189630837e-05 6.366368883224526e-07 0.0
3.893179906545297e-05 1.4012998044963841e-06 0.0
5.7693540313188516e-05 -5.470928197120709e-07 0.0
3.461034069762534e-05 -2.4891371920511687e-06 0.0
3.376938973550251e-05 2.6560675805597397e-06 0.0
3.1131063467126313e-05 1.3450672496773627e-06 0.0
1.6126645755421783e-05 1.1213601232276346e-07 0.0
2.596605663464566e-05 -1.4180643769857013e-06 0.0
5.1481437383425685e-05 3.9097512605054163e-07 0.0
3.6960910044527276e-05 -6.076674411640965e-07 0.0
4.701398791216252e-05 1.5102815810817732e-07 0.0
5.5951488342175556e-05 5.805867779054805e-08 0.0
6.256958497185349e-05 6.770118168801355e-07 0.0
6.32822042188566e-05 -2.5921086964090243e-07 0.0
6.903074957673622e-05 2.790774564873361e-07 0.0
6.933381101105894e-05 -1.77741701088944e-06 0.0
7.923312741474876e-05 3.046044309101265e-07 0.0
6.354715165484385e-05 -1.1910183189868335e-06 0.0
6.930324805057093e-05 2.1945399914200765e-06 0.0
6.335742426855662e-05 1.4741360610629196e-06 0.0
8.191729919503017e-06 -6.755539841835763e-07 0.0
9.143499673107565e-05 -5.8386213248351406e-08 0.0
4.088367915644204e-05 4.325488949213369e-07 0.0
5.184675740809317e-05 -6.122388483030597e-07 0.0
8.013638217724774e-06 6.41224395922067e-07 0.0
9.171394921951508e-05 1.0491405538814558e-06 0.0
5.180905492209531e-05 1.090739677048639e-06 0.0