# vtk DataFile Version 2.0
Really cool data
ASCII
DATASET POLYDATA
POINTS 50 float
0.0 0.0 0
0.125 0.0 0
0.125 0.025 0
0.175 0.025 0
0.175 0.0 0
0.3 0.0 0
0.3 0.1 0
0.175 0.1 0
0.175 0.07500000000000001 0
0.125 0.07500000000000001 0
0.125 0.1 0
0.0 0.1 0
0.06250000013078053 0.0 0
0.125 0.01250000001946666 0
0.1500000000542101 0.025 0
0.175 0.01249999996954492 0
0.2375000000379471 0.0 0
0.3 0.05000000007786663 0
0.2374999999024218 0.09999999999999999 0
0.175 0.08749999992410586 0
0.1499999998970008 0.07500000000000002 0
0.125 0.08749999998373698 0
0.06249999984482352 0.1 0
0.0 0.05000000007786663 0
0.1368030376589693 0.05881183609165548 0
0.117775623603241 0.06013038045187373 0
0.162500000027105 0.041237976310672 0
0.107309198575727 0.08007003580073291 0
0.19212308841714 0.01780898906300205 0
0.1901864428630649 0.07906464689515667 0
0.1094436020031466 0.01874551931480652 0
0.1291338851563814 0.04361389724778988 0
0.1114151539582876 0.04074826126195277 0
0.1624999999485004 0.06043297861285827 0
0.1787552186679302 0.06017424107710374 0
0.1459442698801169 0.044214050543324 0
0.08315066519904095 0.03531547250623295 0
0.08792340551106274 0.06122065477279754 0
0.04632429568687593 0.05307658962797577 0
0.172304892364689 0.04902546201312089 0
0.1850949657786914 0.04563198790008897 0
0.1965712954394372 0.05628532213281995 0
0.2087061817377232 0.03693437174515411 0
0.253205755539793 0.04383466385996593 0
0.2266612590318197 0.06518650077867166 0
0.1762118450318149 0.03854480335931212 0
0.1861593669885893 0.03182859057267874 0
0.02720607395441411 0.0257691474264606 0
0.1502126267551182 0.05641628411908355 0
0.2685302890076256 0.07336950662279432 0
POLYGONS 74 296
3 5 17 43
3 8 20 33
3 28 16 42
3 2 31 32
3 20 9 24
3 30 2 32
3 18 29 44
3 25 27 37
3 24 9 25
3 16 5 43
3 8 33 34
3 27 22 37
3 12 36 38
3 42 43 44
3 33 26 39
3 26 33 48
3 35 26 48
3 11 23 38
3 22 11 38
3 14 26 35
3 44 43 49
3 32 25 37
3 42 16 43
3 6 18 49
3 29 34 41
3 24 31 35
3 24 25 31
3 12 38 47
3 0 12 47
3 7 19 29
3 1 13 30
3 21 10 27
3 15 4 28
3 18 44 49
3 31 25 32
3 28 42 46
3 37 22 38
3 30 32 36
3 43 17 49
3 20 24 48
3 34 33 39
3 33 20 48
3 17 6 49
3 23 0 47
3 39 26 45
3 24 35 48
3 34 39 40
3 40 39 45
3 38 23 47
3 3 15 28
3 9 21 27
3 13 2 30
3 19 8 29
3 41 42 44
3 36 32 37
3 45 3 46
3 42 40 46
3 34 40 41
3 41 40 42
3 40 45 46
3 3 28 46
3 4 16 28
3 10 22 27
3 12 1 30
3 2 14 31
3 14 3 26
3 26 3 45
3 18 7 29
3 29 8 34
3 25 9 27
3 12 30 36
3 31 14 35
3 29 41 44
3 36 37 38
CELL_DATA 74
SCALARS mises double 1
LOOKUP_TABLE default
1178894.9191411247 3062433.8443774567 1068520.2733691745 1909034.661913995 3005914.9323426858 1879018.2398090358 1211085.8250733458 1770856.219749071 2075659.7419180158 1562183.750373843 2210939.5525784986 1150892.5301817295 1474314.2733370415 1361770.7699880803 2054974.4431271048 2370924.5271273064 2396490.689550186 1219512.693454505 1336160.0808687874 2434901.607630825 1337632.3021897618 1810605.3951075918 1410214.1329870303 1707777.2245082418 1980483.583695302 2294920.347602361 2148090.7110735085 1380520.989973252 1280953.4717817744 417160.016473388 446757.40567451133 502523.776025202 541376.6746024918 1346287.7271808758 2087734.9704765307 1727208.6415803037 1499085.7048077008 1589251.0687641762 1001785.2580595631 2526330.3328870907 2198604.5635863226 2483219.324024295 1452944.2055304665 1166912.452258853 2277902.186970616 2499534.502462519 2072096.5789548845 1908549.0313847596 1250251.6171499067 1072918.5754322663 1247066.6960880219 1167288.096651427 1395359.05987026 1706351.862251094 1822613.1990768919 1712486.0064476596 1614271.0291347753 1785126.60607626 1893078.4406131436 2074277.099432728 1741498.683886319 856054.6686917729 792770.5064058579 795026.1569143453 2875177.2414894747 3031881.5933470335 2101804.7168114735 853759.2421424143 1767594.0374567427 1724999.5932376562 1138844.482903771 2325926.5475979634 1416243.4469005368 1544607.3623697401
VECTORS principal_stress_1 float
41237.22033493178 186243.64238896736 0.0
-19900.854601938237 214258.77929991993 0.0
7177.940686990087 45171.75656722294 0.0
-19462.564449524943 107861.24236093627 0.0
-21858.443107440165 -227921.68341577888 0.0
-3983.077330547665 27130.201878150478 0.0
2689.8589148450146 -33067.63267544235 0.0
11539.25864061104 60553.12155508443 0.0
-49485.52798133148 -237466.37555931864 0.0
7051.740091990916 91326.69946045394 0.0
-53553.32401765187 256763.49501182188 0.0
7074.8468688758085 102959.91772628219 0.0
1681.8271284921502 -95551.08192841015 0.0
1186.7071411095092 -105456.38422959358 0.0
-5138.649837336537 426187.31490558636 0.0
-11043.978583148166 494265.4354610482 0.0
-8033.253578336325 -270159.5331424873 0.0
-4760.461529512034 -265735.12057170796 0.0
1350.6047878494605 16365.462268082794 0.0
-3325.053660251502 -149683.2172091329 0.0
-2480.603010805403 43052.39082594696 0.0
324.6423023612782 -13098.791233664333 0.0
8848.87016952801 93687.68487949211 0.0
16458.451929211245 -177996.8442111144 0.0
-2187.1143675869193 12784.863201313547 0.0
-1454.9627018430144 397772.16216611076 0.0
-9276.533803324428 349360.43413718924 0.0
3852.6017749218495 -68370.08742221612 0.0
-4825.240855301577 66957.00995595264 0.0
15872.596023203037 -158049.33591527314 0.0
5979.174776679481 -169743.54998734975 0.0
12543.082765570436 134213.55891329917 0.0
4598.671631043392 191847.4541288374 0.0
754.0182859234415 -10941.969075909255 0.0
-5879.766151084484 -127546.82910113255 0.0
5278.133557225263 23903.41376668559 0.0
871.8870760697232 76350.16183953291 0.0
20659.619703702156 -94042.7683438113 0.0
5925.160399998671 -41326.080694562326 0.0
-3941.9789223516173 -112365.84628659507 0.0
-2000.6204636850318 332612.9281570764 0.0
-2446.3801141563304 108988.15672176391 0.0
44499.06295133647 -244206.93947354757 0.0
-12336.797520743725 251890.11560266098 0.0
-8954.889509649292 -351903.13178635295 0.0
-5922.682197591326 -266582.0451092851 0.0
-11266.79247454602 222989.11393818923 0.0
-18866.72713157179 -221403.03071456956 0.0
-682.4703876141508 84788.57718486618 0.0
189294.6472023084 307205.54349425214 0.0
152752.91415487762 275643.3207935984 0.0
162951.2385224063 -277003.52803962264 0.0
130784.06724976841 -261410.3340208229 0.0
1448.2372267829144 118414.71110252525 0.0
1686.701425056142 157250.45222204464 0.0
-45105.62322462492 -201203.5853966431 0.0
-6915.2207702267 -55696.43589535381 0.0
-77.05838997123897 -116186.21078782478 0.0
1332.190656255362 -60109.75306796774 0.0
-15925.939221944212 -155873.90367564306 0.0
-13482.712566098498 -71526.10670925184 0.0
-27142.2176265222 -74364.27592614232 0.0
-22540.826202123386 -61379.58314960867 0.0
-21767.20536231927 59238.175479463294 0.0
-35068.04341438157 272603.768766838 0.0
-24777.91865313494 -272588.6680828179 0.0
-60517.78953351781 -287403.1932259164 0.0
-21375.74056188503 54838.638113472254 0.0
-23284.63570890279 139526.65702305024 0.0
-15260.52068056261 -104506.96944983689 0.0
4765.763964655207 -95609.69757662016 0.0
-8111.61718277303 205673.8259628061 0.0
18295.06522901559 -84890.23574411302 0.0
2464.873963854538 -227850.6399556456 0.0
VECTORS principal_stress_2 float
-186243.64238896733 41237.22033493184 0.0
-214258.77929991993 -19900.854601938223 0.0
-45171.75656722294 7177.9406869900995 0.0
-107861.24236093627 -19462.56444952494 0.0
227921.68341577888 -21858.44310744013 0.0
-27130.201878150478 -3983.0773305476628 0.0
33067.63267544236 2689.858914845013 0.0
-60553.12155508443 11539.258640611044 0.0
237466.37555931864 -49485.52798133149 0.0
-91326.69946045394 7051.7400919909005 0.0
-256763.49501182188 -53553.32401765185 0.0
-102959.91772628219 7074.846868875816 0.0
95551.08192841015 1681.8271284921445 0.0
105456.38422959358 1186.7071411095028 0.0
-426187.31490558636 -5138.649837336511 0.0
-494265.4354610482 -11043.978583148135 0.0
270159.5331424873 -8033.253578336402 0.0
265735.12057170796 -4760.46152951205 0.0
-16365.462268082794 1350.604787849458 0.0
149683.2172091329 -3325.0536602515112 0.0
-43052.39082594696 -2480.6030108054 0.0
13098.791233664333 324.64230236127736 0.0
-93687.68487949211 8848.870169527994 0.0
177996.8442111144 16458.451929211235 0.0
-12784.863201313547 -2187.1143675869184 0.0
-397772.16216611076 -1454.96270184299 0.0
-349360.43413718924 -9276.533803324406 0.0
68370.08742221612 3852.601774921846 0.0
-66957.00995595264 -4825.240855301573 0.0
158049.33591527314 15872.596023203028 0.0
169743.54998734975 5979.17477667947 0.0
-134213.55891329917 12543.082765570445 0.0
-191847.4541288374 4598.671631043447 0.0
10941.969075909255 754.0182859234408 0.0
127546.82910113255 -5879.766151084492 0.0
-23903.41376668559 5278.133557225265 0.0
-76350.16183953291 871.887076069728 0.0
94042.7683438113 20659.61970370215 0.0
41326.080694562326 5925.160399998667 0.0
112365.84628659507 -3941.978922351624 0.0
-332612.9281570764 -2000.6204636850118 0.0
-108988.15672176391 -2446.3801141563235 0.0
244206.93947354757 44499.062951336455 0.0
-251890.11560266098 -12336.79752074371 0.0
351903.13178635295 -8954.889509649236 0.0
266582.0451092851 -5922.6821975913435 0.0
-222989.11393818923 -11266.792474546008 0.0
221403.03071456956 -18866.727131571857 0.0
-84788.57718486618 -682.4703876141457 0.0
-307205.5434942522 189294.64720230838 0.0
-275643.3207935984 152752.91415487762 0.0
277003.52803962264 162951.2385224063 0.0
261410.33402082295 130784.0672497684 0.0
-118414.71110252525 1448.2372267828953 0.0
-157250.45222204464 1686.7014250561165 0.0
201203.5853966431 -45105.62322462493 0.0
55696.43589535381 -6915.2207702266915 0.0
116186.21078782478 -77.05838997124609 0.0
60109.75306796774 1332.1906562553584 0.0
155873.90367564306 -15925.939221944187 0.0
71526.10670925184 -13482.712566098486 0.0
74364.2759261423 -27142.217626522222 0.0
61379.58314960867 -22540.82620212339 0.0
-59238.175479463294 -21767.205362319262 0.0
-272603.768766838 -35068.04341438155 0.0
272588.6680828179 -24777.918653134897 0.0
287403.1932259164 -60517.789533517825 0.0
-54838.63811347226 -21375.740561885028 0.0
-139526.65702305024 -23284.635708902784 0.0
104506.96944983689 -15260.520680562617 0.0
95609.69757662016 4765.763964655202 0.0
-205673.82596280612 -8111.617182773018 0.0
84890.23574411302 18295.06522901558 0.0
227850.6399556456 2464.8739638545235 0.0
POINT_DATA 50
VECTORS displacements float
0.0 0.0 0.0
-6.412106256756394e-06 -2.9957154573024354e-07 0.0
-8.312848075660926e-06 -1.4198629013496785e-07 0.0
-1.5606182351352787e-05 1.1463174627164231e-07 0.0
-1.7410493792964493e-05 -5.9587865851848506e-08 0.0
-2.4722669704792857e-05 -1.793056956674964e-07 0.0
-2.53518413314539e-05 1.7760331681111803e-06 0.0
-1.769598352171524e-05 6.338809562694541e-07 0.0
-1.580882650201816e-05 4.155979605122884e-07 0.0
-8.354521259285625e-06 2.876734956285729e-07 0.0
-6.5035769249963196e-06 4.6233689561594553e-07 0.0
0.0 0.0 0.0
-3.910610679338993e-06 -9.002924018440046e-07 0.0
-6.7281782340193274e-06 -1.573209411558992e-07 0.0
-1.1867965351472071e-05 -2.3382750154066006e-07 0.0
-1.7151653871260328e-05 1.0595481724259289e-07 0.0
-2.0107371595473548e-05 -3.681672021434244e-07 0.0
-2.312878562380916e-05 6.596984133101792e-07 0.0
-2.0385213761181162e-05 1.1499182543823114e-06 0.0
-1.7339141015248057e-05 5.030632155773117e-07 0.0
-1.2049756107451009e-05 5.80521002186704e-07 0.0
-6.826312813340502e-06 3.3320636988296023e-07 0.0
-4.00833887350219e-06 9.707356776060828e-07 0.0
0.0 0.0 0.0
-1.042837353509058e-05 1.3835755197052287e-07 0.0
-8.38804609704644e-06 2.413490402901285e-07 0.0
-1.3470188689600931e-05 2.029452288640821e-07 0.0
-6.6347367024872884e-06 6.064528022352477e-07 0.0
-1.7418649193371313e-05 -1.4934868482897046e-07 0.0
-1.7353179085952205e-05 7.643605270698351e-07 0.0
-6.608425287121984e-06 -4.4752818153096536e-07 0.0
-9.591312377486271e-06 9.704464841193528e-08 0.0
-7.789302037598473e-06 -8.822788723873184e-08 0.0
-1.3563201213223923e-05 2.218348099762302e-07 0.0
-1.534195121478984e-05 3.6351029859076755e-07 0.0
-1.151976217653924e-05 3.6993960254078644e-08 0.0
-5.381544807430707e-06 -2.9676475713492887e-07 0.0
-5.7972616052516585e-06 3.449358551993672e-07 0.0
-2.84487636240672e-06 1.0196071994659432e-07 0.0
-1.4521153801732943e-05 2.3345021543837362e-07 0.0
-1.5782923881869638e-05 2.3745171230232794e-07 0.0
-1.686822428256113e-05 4.5706411362115714e-07 0.0
-1.7869298796302348e-05 5.3800246242120746e-08 0.0
-2.0770393602227477e-05 4.925667598796353e-07 0.0
-1.926806448283355e-05 6.795861783729904e-07 0.0
-1.5049911048538188e-05 1.584725359906453e-07 0.0
-1.6228776609636948e-05 6.80546752312474e-08 0.0
-1.598720071749135e-06 -1.5697725988925945e-07 0.0
-1.2078463470402709e-05 2.2439572469653907e-07 0.0
-2.2073160958414386e-05 8.367261057877092e-07 0.0