# vtk DataFile Version 2.0
Really cool data
ASCII
DATASET POLYDATA
POINTS 56 float
0.0 0.0 0
0.125 0.0 0
0.125 0.02334 0
0.175 0.02334 0
0.175 0.0 0
0.3 0.0 0
0.3 0.1 0
0.175 0.1 0
0.175 0.07666 0
0.125 0.07666 0
0.125 0.1 0
0.0 0.1 0
0.06250000013078053 0.0 0
0.125 0.01167000002003441 0
0.1500000000542101 0.02334 0
0.175 0.01166999996707013 0
0.2375000000379471 0.0 0
0.3 0.05000000007786663 0
0.2374999999024218 0.09999999999999999 0
0.175 0.08832999993494788 0
0.1499999998970008 0.07665999999999999 0
0.125 0.08832999997018445 0
0.06249999984482352 0.1 0
0.0 0.05000000007786663 0
0.1368378589992297 0.06039872443097946 0
0.1200830408030128 0.0619423520326409 0
0.1621029953663226 0.03553474947567583 0
0.1290478498699695 0.04696464388456754 0
0.162881917147717 0.06369906893904027 0
0.1060147680221033 0.0801371856807503 0
0.1854042268367296 0.01878697132534954 0
0.1925627073004585 0.08332404606916471 0
0.1085043917481642 0.01684352877891254 0
0.1129503579282855 0.04716900684675875 0
0.1470055432978693 0.0443106762620949 0
0.1343311797793758 0.03469612445151377 0
0.117126270668195 0.03325652908404783 0
0.150879491963546 0.05828707351315841 0
0.1813518196051848 0.04932570291004233 0
0.03405384939959296 0.03131731172130412 0
0.06855828108864273 0.04342157517872612 0
0.09528897502905133 0.03359625092526494 0
0.03735165681122113 0.06465832104609139 0
0.07733868973861781 0.07076944453818244 0
0.0982453606278916 0.05751955866593692 0
0.2649297449101687 0.06741218117839044 0
0.2312145859160908 0.05601688591031534 0
0.2610433246699425 0.03405840234638925 0
0.2161736399341948 0.02269567663539092 0
0.2012439639342088 0.04987028699334593 0
0.2099524475290249 0.07124376339867167 0
0.1886096906189059 0.06608345671659423 0
0.1858474942494531 0.03622918002428662 0
0.173928724021553 0.03888592648285288 0
0.1748321094092648 0.0638590017988894 0
0.1647118001159225 0.05055745705453629 0
POLYGONS 86 344
3 29 22 43
3 38 49 51
3 2 14 35
3 20 9 24
3 24 9 25
3 8 28 54
3 49 38 52
3 34 26 55
3 14 26 34
3 32 36 41
3 30 48 52
3 37 34 55
3 36 33 41
3 38 51 54
3 25 29 44
3 24 27 34
3 24 25 27
3 41 33 44
3 32 2 36
3 16 5 47
3 53 38 55
3 22 11 42
3 48 49 52
3 6 18 45
3 0 12 39
3 14 34 35
3 46 18 50
3 26 53 55
3 34 27 35
3 29 43 44
3 40 41 44
3 2 35 36
3 7 19 31
3 1 13 32
3 15 4 30
3 21 10 29
3 5 17 47
3 3 30 52
3 47 46 48
3 11 23 42
3 38 54 55
3 49 50 51
3 52 38 53
3 27 25 33
3 3 52 53
3 28 20 37
3 50 31 51
3 42 40 43
3 28 37 55
3 45 46 47
3 35 27 36
3 20 24 37
3 45 18 46
3 43 40 44
3 54 28 55
3 24 34 37
3 40 12 41
3 23 0 39
3 17 6 45
3 51 8 54
3 31 8 51
3 39 40 42
3 16 47 48
3 22 42 43
3 33 25 44
3 3 15 30
3 9 21 29
3 13 2 32
3 19 8 31
3 27 33 36
3 39 12 40
3 17 45 47
3 48 46 49
3 49 46 50
3 23 39 42
3 30 4 48
3 10 22 29
3 12 1 32
3 14 3 26
3 26 3 53
3 4 16 48
3 18 7 31
3 8 20 28
3 25 9 29
3 12 32 41
3 18 31 50
CELL_DATA 86
SCALARS mises double 1
LOOKUP_TABLE default
5940142.085059234 8953833.251259653 14628547.820073882 14098682.043404263 9930446.585638251 10597859.067955295 9103899.898876872 11092859.102456314 12206367.604325596 8573098.685588667 5957053.948295054 10692087.138431674 8579664.972078703 9630251.703800851 9303907.664762503 10255645.743583772 10343290.115079174 9712275.358345676 8141957.132493493 8295961.026766192 9736369.82180072 6565620.678271512 8306541.8467925135 8389448.248989074 6500522.594183327 12324758.7392137 6723756.6265887795 10126188.660364471 10662072.047549807 6827976.252614761 7929384.732420302 9942986.083212283 3044587.4749082625 2664396.3583747935 1682775.8070510696 2912335.5060948683 6540162.501856069 9233647.695716992 6511626.641792075 5986705.393608338 10005317.017120762 8477466.186251882 10150669.608690381 9830787.444020065 9090545.777468864 12021050.68041692 7341148.555147492 7319826.180308522 11113452.882392013 6521020.135303628 10400765.074314892 11630514.656688478 6426762.262089825 8500418.229591046 10629674.68850765 11376550.650779067 7453228.626875302 5987459.633913537 6759737.9622364845 8761792.166098652 8219003.226784059 7029871.775901985 6541280.774167072 7193515.70850148 8543419.285604067 6901017.927692695 6648094.336218106 5278964.914884823 5441732.749633526 9914788.29897594 7252072.540440564 4413294.27585297 8083099.276827549 7552201.289938181 6242140.031595945 5834839.72862752 3988890.9030923685 4100329.2627062676 14648915.718146352 11421770.983790506 4485681.33832779 4304683.182239539 14628333.149070106 7963650.132913348 5055184.488612365 5088025.665766049
VECTORS principal_stress_1 float
5739820.182287643 -92804.01769899139 0.0
9093774.078235578 751015.248780589 0.0
15208191.013098327 1828506.1054821748 0.0
14718491.675376257 -1465647.4893347889 0.0
10777178.886160836 -2219936.5670513064 0.0
11564146.161359336 2659365.546744017 0.0
9176003.083808856 -852745.8735193843 0.0
11991369.727202604 -630808.515551019 0.0
12497737.991858825 -341500.36622373294 0.0
8913653.301666806 1820355.7917523931 0.0
6505158.911097793 -2173831.037572447 0.0
11351015.568941275 171791.96969709356 0.0
8649345.68635774 422028.56852011726 0.0
9989077.30713424 274927.15686964523 0.0
9400746.4874392 -1423678.1725891088 0.0
11103001.454943845 -345161.7042986136 0.0
11043333.310187384 -17829.933809176877 0.0
9424840.831102239 174611.47913907355 0.0
8578311.544835042 1687350.5993164484 0.0
8036987.349615209 -611770.5106569197 0.0
10408791.90736266 -658386.3804197981 0.0
6682340.579761199 -522698.72812793974 0.0
8159422.444303357 -345669.66076722124 0.0
8095673.837099985 680493.6599145333 0.0
6642406.077998567 530995.8950845093 0.0
12771221.942558123 531454.2721863372 0.0
6659651.946055149 508948.07831805205 0.0
10906881.357163632 -371213.78002925013 0.0
11548709.340159047 1057120.4153666687 0.0
6644617.613286706 -1033049.644325141 0.0
7389014.515306423 386388.652495061 0.0
10938250.286200773 2866836.8621495035 0.0
2446367.521649965 43863.96338500277 0.0
2115774.8341562347 29162.45728131509 0.0
490083.00817335054 -25703.436948041734 0.0
2634180.721985003 -280323.23979588854 0.0
6247039.77673467 -1316823.0854217021 0.0
9882710.526790017 -1966559.215643318 0.0
6298662.7072447995 -359614.9152631276 0.0
6535415.393128296 -270991.26488000754 0.0
10599838.703457236 799606.817419182 0.0
8411055.89631583 406298.7300271344 0.0
10500855.417480396 -204642.04914019027 0.0
10233799.447546858 -647869.4824017694 0.0
9850378.457604198 -2112516.4912600466 0.0
12364335.727360768 385206.1076945969 0.0
7758914.415886861 2097751.246840007 0.0
6901739.68185959 -224434.88023683036 0.0
12030654.175919099 804317.8091994463 0.0
6751741.50073771 29490.880108962756 0.0
11055706.0750057 440207.9970887889 0.0
11890917.637227667 -425105.3427629005 0.0
6338842.723811674 456388.33788239525 0.0
8129638.762513255 -180827.37045425663 0.0
11436297.304325288 290507.6016030294 0.0
12182133.606840247 -271534.5676606148 0.0
7153541.687218471 148096.21375306763 0.0
6536912.73742831 296690.3270336692 0.0
6411101.827013498 1293150.1474183523 0.0
9572036.50169538 2425403.498306379 0.0
8690769.208914274 1777725.0336105817 0.0
7148068.081410698 56184.61789062159 0.0
6509430.918536413 -614064.2842043818 0.0
6910858.459712747 -152471.57864735558 0.0
8664934.07795854 -81562.92386205647 0.0
8253060.700987059 -3966998.1578629753 0.0
8152501.242214901 -4151902.9981004847 0.0
7148255.719983654 4275781.019606629 0.0
7340091.896299473 4369527.911786394 0.0
10272497.768108878 977799.7684573431 0.0
6912565.017481156 229504.75198035536 0.0
4430620.727923024 108384.5924330499 0.0
7898992.570670647 -413618.03644384805 0.0
7299422.365308996 717231.5023818064 0.0
6290821.267934522 -28205.913696946973 0.0
6381002.7732945895 -1987151.3022096595 0.0
4518799.446420571 -1508757.7310268981 0.0
4652480.94598549 1562499.469579208 0.0
15194071.281226909 -1431195.0785193432 0.0
12384938.519598303 -2486483.2097215173 0.0
4806883.412830817 -1018014.0387843264 0.0
4900497.607049587 1656289.502386261 0.0
15206561.644345755 1510469.6062380667 0.0
8412175.377066858 -1386699.701506713 0.0
5020789.529450768 692737.4882103832 0.0
5251122.143442309 870579.6316670147 0.0
VECTORS principal_stress_2 float
92804.01769899233 5739820.182287643 0.0
-751015.2487805893 9093774.078235578 0.0
-1828506.1054821745 15208191.013098327 0.0
1465647.4893347898 14718491.675376257 0.0
2219936.5670513064 10777178.886160836 0.0
-2659365.5467440165 11564146.161359336 0.0
852745.873519385 9176003.083808856 0.0
630808.5155510205 11991369.727202604 0.0
341500.36622373434 12497737.991858825 0.0
-1820355.7917523936 8913653.301666806 0.0
2173831.037572447 6505158.911097793 0.0
-171791.96969709292 11351015.568941275 0.0
-422028.5685201174 8649345.68635774 0.0
-274927.15686964506 9989077.30713424 0.0
1423678.172589109 9400746.4874392 0.0
345161.704298615 11103001.454943845 0.0
17829.93380917663 11043333.310187384 0.0
-174611.47913907346 9424840.831102239 0.0
-1687350.599316447 8578311.544835042 0.0
611770.5106569205 8036987.349615209 0.0
658386.3804197992 10408791.90736266 0.0
522698.72812794 6682340.579761198 0.0
345669.66076722136 8159422.444303357 0.0
-680493.6599145322 8095673.837099985 0.0
-530995.8950845087 6642406.077998567 0.0
-531454.2721863374 12771221.942558123 0.0
-508948.0783180516 6659651.946055149 0.0
371213.7800292505 10906881.357163632 0.0
-1057120.415366668 11548709.340159047 0.0
1033049.6443251418 6644617.613286706 0.0
-386388.6524950603 7389014.515306423 0.0
-2866836.8621495045 10938250.286200773 0.0
-43863.963385002746 2446367.521649965 0.0
-29162.457281314975 2115774.8341562347 0.0
25703.436948041803 490083.00817335054 0.0
280323.23979588895 2634180.721985003 0.0
1316823.0854217024 6247039.77673467 0.0
1966559.2156433186 9882710.526790017 0.0
359614.91526312835 6298662.7072447995 0.0
270991.2648800085 6535415.393128296 0.0
-799606.8174191806 10599838.703457238 0.0
-406298.73002713424 8411055.89631583 0.0
204642.04914018983 10500855.417480396 0.0
647869.4824017698 10233799.447546858 0.0
2112516.491260047 9850378.457604198 0.0
-385206.1076945954 12364335.727360768 0.0
-2097751.246840007 7758914.415886861 0.0
224434.88023683062 6901739.68185959 0.0
-804317.8091994452 12030654.175919099 0.0
-29490.880108962036 6751741.50073771 0.0
-440207.9970887872 11055706.0750057 0.0
425105.3427629004 11890917.637227667 0.0
-456388.33788239496 6338842.723811674 0.0
180827.37045425773 8129638.762513255 0.0
-290507.60160302906 11436297.304325288 0.0
271534.56766061543 12182133.606840247 0.0
-148096.2137530665 7153541.687218471 0.0
-296690.32703366905 6536912.73742831 0.0
-1293150.1474183514 6411101.827013498 0.0
-2425403.4983063783 9572036.50169538 0.0
-1777725.0336105803 8690769.208914274 0.0
-56184.61789062101 7148068.081410698 0.0
614064.2842043822 6509430.918536413 0.0
152471.5786473555 6910858.459712747 0.0
81562.92386205783 8664934.07795854 0.0
3966998.1578629753 8253060.700987059 0.0
4151902.9981004857 8152501.242214901 0.0
-4275781.01960663 7148255.719983653 0.0
-4369527.911786393 7340091.896299473 0.0
-977799.7684573433 10272497.768108878 0.0
-229504.7519803542 6912565.017481156 0.0
-108384.59243304955 4430620.727923024 0.0
413618.0364438481 7898992.570670647 0.0
-717231.5023818057 7299422.365308996 0.0
28205.913696946784 6290821.267934522 0.0
1987151.3022096595 6381002.7732945895 0.0
1508757.731026899 4518799.446420571 0.0
-1562499.469579208 4652480.94598549 0.0
1431195.0785193446 15194071.281226909 0.0
2486483.209721518 12384938.519598303 0.0
1018014.0387843263 4806883.412830817 0.0
-1656289.5023862612 4900497.607049587 0.0
-1510469.6062380662 15206561.644345755 0.0
1386699.7015067125 8412175.377066858 0.0
-692737.4882103828 5020789.529450768 0.0
-870579.6316670142 5251122.143442309 0.0
POINT_DATA 56
VECTORS displacements float
0.0 0.0 0.0
3.261925647733015e-05 1.86757424330614e-06 0.0
4.091174553692446e-05 1.0132459888960197e-06 0.0
7.677373414563535e-05 1.3959247182612516e-06 0.0
8.473683705722023e-05 2.7013206553432634e-06 0.0
0.00012300143189211866 6.742788431031998e-06 0.0
0.00012216840088790176 -3.5386742680288613e-06 0.0
8.403544062961486e-05 -1.4121910856880622e-06 0.0
7.609396334173679e-05 -4.13022988989469e-07 0.0
4.0826854635940676e-05 -9.515915453327346e-07 0.0
3.241441517658307e-05 -1.9696010267380794e-06 0.0
0.0 0.0 0.0
1.9748561095919047e-05 4.679292563955189e-06 0.0
3.390107127002181e-05 1.1381942868172811e-06 0.0
5.882927659511953e-05 2.14394148192728e-06 0.0
8.333761709134085e-05 1.8688771781615855e-06 0.0
9.860464376118484e-05 4.7031080469102535e-06 0.0
0.00011241253748011493 1.7386047789860594e-06 0.0
9.756992330982138e-05 -2.3392876205148586e-06 0.0
8.302260721133188e-05 -5.967299507363816e-07 0.0
5.815644059405138e-05 -1.7562907853105756e-06 0.0
3.395893392368899e-05 -1.380914611962681e-06 0.0
1.9901195072188876e-05 -4.7876154700397285e-06 0.0
0.0 0.0 0.0
5.105030542592282e-05 2.7869837022678435e-08 0.0
4.234103442204407e-05 -7.335703773760291e-07 0.0
6.599469960087692e-05 6.087578253604854e-07 0.0
4.762983608100762e-05 9.990698154956229e-08 0.0
6.598703082379499e-05 1.4574760622481937e-07 0.0
3.256201055325189e-05 -2.740008054543991e-06 0.0
8.286591003144855e-05 2.4904637334838737e-06 0.0
8.481601010015037e-05 -1.6472478094877016e-06 0.0
3.265259201413945e-05 2.548181717933026e-06 0.0
3.983747507398357e-05 1.6893494705128934e-07 0.0
5.698787168678753e-05 3.2961197504483845e-07 0.0
4.9338592075078344e-05 3.4110822036170934e-07 0.0
4.031862976388439e-05 1.0700329670697548e-06 0.0
5.904721906331431e-05 -1.4275999137870942e-07 0.0
7.457342298613567e-05 6.417701730470911e-07 0.0
1.0267791951555111e-05 9.33970831416433e-07 0.0
2.19966068315395e-05 5.964406655866092e-07 0.0
3.130428052396309e-05 1.9535881040874276e-06 0.0
1.1260716287504201e-05 -9.354605006430395e-07 0.0
2.4777113362432804e-05 -2.4358149860048154e-06 0.0
3.343113475497856e-05 -8.843057200361699e-07 0.0
0.00010497661825271888 6.314683692063678e-07 0.0
9.43195928209622e-05 6.169745956392083e-07 0.0
0.00010410932134004567 1.9568341986389655e-06 0.0
9.069921687597362e-05 3.538931906758566e-06 0.0
8.324032431361817e-05 7.731506973787291e-07 0.0
8.792623392935471e-05 -1.1636329893085354e-06 0.0
7.89960340357803e-05 -5.746611059509528e-07 0.0
7.794716109266673e-05 1.7911316041093947e-06 0.0
7.178492818604997e-05 8.446588151983484e-07 0.0
7.235014404189551e-05 -3.1353325445588714e-08 0.0
6.639993326865589e-05 3.9412936517426646e-07 0.0