# vtk DataFile Version 2.0
Really cool data
ASCII
DATASET POLYDATA
POINTS 55 float
0.0 0.0 0
0.125 0.0 0
0.125 0.01172 0
0.175 0.01172 0
0.175 0.0 0
0.3 0.0 0
0.3 0.1 0
0.175 0.1 0
0.175 0.08828000000000001 0
0.125 0.08828000000000001 0
0.125 0.1 0
0.0 0.1 0
0.06250000013078053 0.0 0
0.125 0.005860000014228156 0
0.1500000000542101 0.01172 0
0.175 0.005859999987116559 0
0.2375000000379471 0.0 0
0.3 0.05000000007786663 0
0.2374999999024218 0.09999999999999999 0
0.175 0.09413999996205294 0
0.1499999998970008 0.08828000000000001 0
0.125 0.09413999995934241 0
0.06249999984482352 0.1 0
0.0 0.05000000007786663 0
0.1368811315236244 0.07198528837104431 0
0.1228972308350677 0.07158558099091927 0
0.129493188654232 0.0590154463358247 0
0.1466254598485874 0.05711783814040982 0
0.1627339737747585 0.02472720109245123 0
0.1374070397064014 0.02675363805502714 0
0.1202826934281003 0.02625958783311937 0
0.1633992379144745 0.07310628479962747 0
0.1108264226580989 0.08335422020418026 0
0.1096917069318292 0.01319767310123941 0
0.0970040298694254 0.03642910314685966 0
0.1500000000384625 0.04005397092173079 0
0.053179829521237 0.04794239176103065 0
0.1128651892521462 0.05811242557694952 0
0.0872750942291462 0.065167628137804 0
0.1276682286853365 0.043391715715703 0
0.162870805502625 0.05146490085891596 0
0.1503679266996465 0.06979727367854185 0
0.1621139315096551 0.03869711458626087 0
0.1777424276352707 0.04297736668138296 0
0.1770953679969465 0.06201313391635757 0
0.1938257934932421 0.05394020987189608 0
0.191631769749912 0.07924583205169634 0
0.1919645850414514 0.02518281973689332 0
0.2251032075542365 0.05659299225103021 0
0.1767815939153332 0.07566131269192033 0
0.1760986254609476 0.02726308555993188 0
0.2630213197332901 0.03640949390116633 0
0.2651249054379897 0.06860049724601261 0
0.1595204356017897 0.06240608766942763 0
0.1506380125709661 0.02776670574249898 0
POLYGONS 84 336
3 35 27 39
3 11 23 36
3 20 9 24
3 27 26 39
3 2 14 29
3 21 10 32
3 24 9 25
3 9 21 32
3 23 0 36
3 25 32 37
3 47 16 48
3 13 2 33
3 45 47 48
3 22 11 36
3 34 30 39
3 12 33 34
3 1 13 33
3 0 12 36
3 46 8 49
3 2 29 30
3 32 22 38
3 28 3 50
3 37 34 39
3 27 35 40
3 26 37 39
3 42 28 50
3 3 47 50
3 29 35 39
3 24 25 26
3 36 34 38
3 24 26 27
3 44 31 53
3 6 18 52
3 40 44 53
3 16 5 51
3 34 37 38
3 31 20 41
3 5 17 51
3 12 34 36
3 44 46 49
3 40 35 42
3 48 16 51
3 27 40 53
3 43 42 50
3 14 28 54
3 28 42 54
3 26 25 37
3 31 44 49
3 25 9 32
3 20 24 41
3 37 32 38
3 22 36 38
3 42 35 54
3 40 43 44
3 24 27 41
3 30 29 39
3 29 14 54
3 2 30 33
3 17 6 52
3 47 43 50
3 44 45 46
3 35 29 54
3 18 46 48
3 45 43 47
3 48 51 52
3 44 43 45
3 40 42 43
3 51 17 52
3 18 48 52
3 33 30 34
3 31 41 53
3 46 45 48
3 41 27 53
3 12 1 33
3 18 7 46
3 10 22 32
3 14 3 28
3 3 15 47
3 15 4 47
3 4 16 47
3 7 19 46
3 19 8 46
3 8 20 31
3 8 31 49
CELL_DATA 84
SCALARS mises double 1
LOOKUP_TABLE default
7588226.854314049 6025839.751143694 10139689.125800453 7720698.109769429 10164552.75412888 4105877.135038334 8097611.508608575 8399398.455969898 6025839.751143694 8035782.680981743 6680350.197467025 7373607.445251023 7084956.675407582 6669091.966158957 7442837.880390459 5908294.558057528 4046229.031966082 6670709.38248808 7033477.806290035 8044453.9205155345 6145425.606531661 8439739.333008237 7754470.03441637 7580761.149446168 7456621.56955435 7888554.982816536 7287979.509359046 7691243.520452951 8023296.786695347 7244023.74905828 7588994.991101257 7562686.270152879 8432302.081320355 7565519.779975661 8267295.7020760905 7744719.189496225 8548231.816864936 6339886.155011674 7051231.107322535 7497239.622960038 7744490.545424362 6088825.018574125 7653030.102009703 7822374.229734661 8749239.903666742 8406254.79953289 7612204.725110954 8277464.773721896 6791680.899998859 8450561.05571793 7214563.927450288 6911240.158460378 7820809.448246565 7707776.141601753 8298457.664380641 8108196.250098534 8602269.540087279 6697534.392180255 6866307.830052597 7561925.848942102 7770347.361466414 8496466.759707058 6470903.491920445 7833452.060132278 6319023.33046301 7103771.51434792 7482981.065051344 4304794.940499909 6311311.404255291 7755497.779129985 8294133.726787922 6909276.477095252 7860471.904730973 5317398.571476234 5693055.650791335 5300156.32792636 10392040.680305758 8428217.193476122 4995505.04960102 5718069.089949113 4673816.348277685 8458654.901698016 10319842.900034815 7887229.641227811
VECTORS principal_stress_1 float
7990472.528099658 -23940.512362481542 0.0
6574750.021450571 20851.340421456098 0.0
10350214.924346814 -560632.141562429 0.0
8010644.110544559 19144.71621263024 0.0
10354342.477326207 568054.0224012558 0.0
4020058.0191588807 -302169.0912535755 0.0
8387566.986992104 -911056.0024228106 0.0
8383831.789566933 -2013900.6449667036 0.0
6574750.021450571 20851.340421456098 0.0
8069288.900685876 -387651.1518724945 0.0
6739929.554857644 -295311.33711888175 0.0
7628022.544777114 2476846.5532278526 0.0
7027001.986489844 -315217.2262231697 0.0
6716582.504541868 -339915.4686013301 0.0
7541774.270792829 343916.98557794734 0.0
5844501.717246439 272403.0753204935 0.0
3897719.906820993 80828.9905798981 0.0
6690321.061678019 342188.24857315584 0.0
7276341.181826401 1152021.1164746294 0.0
8343095.252057754 1040115.3500687609 0.0
6076260.549922438 -90442.23210858104 0.0
8737534.011324422 -1167058.0434927002 0.0
7742141.017220532 -98045.70024868748 0.0
7987293.670073328 2097.4826912502417 0.0
7714006.050093518 86590.90356926367 0.0
8252331.417817838 -108392.68251862185 0.0
7478125.275999117 -1120695.6165210693 0.0
8086182.069964401 276846.20219340577 0.0
8302341.075674941 -47711.31466558127 0.0
6995393.318668902 5910.269321212048 0.0
8001521.262857572 -256124.78078087777 0.0
7974056.551546417 249088.60012730325 0.0
8210333.006301052 595746.3218536297 0.0
7944261.28168313 -13311.762940931649 0.0
8123894.956554209 -531600.9682194536 0.0
7565871.96075296 94432.97882669582 0.0
8733628.768093199 142683.32135573242 0.0
6038929.78731477 -1288503.7658743716 0.0
6988108.086503284 -76784.66863395946 0.0
7605328.757370771 403812.7041569494 0.0
8157800.028002172 -77983.73250247038 0.0
6085311.509206987 -353784.308235775 0.0
8072557.983189537 110652.13278515593 0.0
8018782.080950678 -311175.3678601501 0.0
8919373.326554896 -91207.23144380955 0.0
8813226.292121291 -433232.1078773299 0.0
7713145.969252901 -392415.0012416142 0.0
8460563.046187764 327050.4077587236 0.0
6934157.093401434 -755437.6647116479 0.0
8619326.013071623 -119596.37828225063 0.0
7151737.199174487 -570034.0851446678 0.0
6874051.018812757 82582.36094074485 0.0
8103016.738692012 -62633.14838498273 0.0
7956942.701646268 43665.50278978962 0.0
8679470.705542332 -192596.40762691118 0.0
8350899.104451955 49650.0598606776 0.0
8747053.153031502 128180.4728689333 0.0
6823809.77107051 765812.7997897617 0.0
6485192.95672069 1283933.206530209 0.0
7711150.774910727 -163238.45553591533 0.0
7808808.95942001 405539.6597535309 0.0
8850630.654877739 50902.030817077204 0.0
6537926.179910397 359900.63575972116 0.0
7848742.209877542 -254788.85581372277 0.0
6618275.445379142 98457.23332006726 0.0
7290069.2785935905 -6263.466472777453 0.0
7866491.9366089115 8733.898586466228 0.0
4404416.599100381 184853.84613159785 0.0
6366785.438094145 364694.6029670042 0.0
7805275.231683569 569352.8289987146 0.0
8701375.255585652 338554.918135016 0.0
6874814.545128457 493659.52862536185 0.0
8156274.923553409 6318.88090964155 0.0
5547392.564525671 939387.5962230287 0.0
5919122.258745924 998287.7565474041 0.0
5510897.498617763 -921750.9113720075 0.0
10562230.495437715 -617269.5700643007 0.0
8400931.36336991 -1332895.2284378165 0.0
5005990.7955432795 -579778.9262268987 0.0
5917083.190886756 -935664.9904749998 0.0
4651637.728605343 485154.9111135613 0.0
8416161.18047446 1679120.204958581 0.0
10529108.710464133 650191.5463501685 0.0
8189595.657767045 1141404.690459869 0.0
VECTORS principal_stress_2 float
23940.51236248171 7990472.528099658 0.0
-20851.340421455352 6574750.021450572 0.0
560632.141562429 10350214.924346814 0.0
-19144.716212630596 8010644.110544559 0.0
-568054.0224012551 10354342.477326207 0.0
302169.0912535756 4020058.0191588807 0.0
911056.0024228102 8387566.986992104 0.0
2013900.6449667038 8383831.789566933 0.0
-20851.340421455352 6574750.021450572 0.0
387651.15187249484 8069288.900685876 0.0
295311.3371188814 6739929.554857644 0.0
-2476846.553227851 7628022.544777115 0.0
315217.2262231701 7027001.986489844 0.0
339915.4686013312 6716582.504541868 0.0
-343916.9855779473 7541774.270792829 0.0
-272403.07532049343 5844501.717246439 0.0
-80828.99057989824 3897719.906820993 0.0
-342188.2485731547 6690321.061678019 0.0
-1152021.1164746296 7276341.1818264 0.0
-1040115.3500687602 8343095.252057754 0.0
90442.23210858194 6076260.549922438 0.0
1167058.0434927007 8737534.011324422 0.0
98045.70024868757 7742141.017220532 0.0
-2097.4826912500653 7987293.670073328 0.0
-86590.90356926332 7714006.050093518 0.0
108392.68251862287 8252331.417817838 0.0
1120695.6165210702 7478125.275999117 0.0
-276846.2021934044 8086182.069964401 0.0
47711.3146655825 8302341.075674941 0.0
-5910.269321211807 6995393.318668902 0.0
256124.78078087783 8001521.262857572 0.0
-249088.6001273025 7974056.551546417 0.0
-595746.3218536285 8210333.006301052 0.0
13311.762940932394 7944261.28168313 0.0
531600.968219454 8123894.956554209 0.0
-94432.97882669616 7565871.96075296 0.0
-142683.32135573123 8733628.768093199 0.0
1288503.7658743723 6038929.78731477 0.0
76784.66863395929 6988108.086503284 0.0
-403812.7041569493 7605328.757370771 0.0
77983.73250247119 8157800.028002172 0.0
353784.30823577556 6085311.509206987 0.0
-110652.13278515589 8072557.983189537 0.0
311175.3678601511 8018782.080950678 0.0
91207.23144381012 8919373.326554896 0.0
433232.10787732963 8813226.292121291 0.0
392415.00124161434 7713145.969252901 0.0
-327050.4077587227 8460563.046187764 0.0
755437.6647116487 6934157.093401434 0.0
119596.37828225076 8619326.013071623 0.0
570034.0851446674 7151737.199174487 0.0
-82582.3609407449 6874051.018812757 0.0
62633.14838498327 8103016.738692012 0.0
-43665.502789788436 7956942.701646268 0.0
192596.40762691185 8679470.705542332 0.0
-49650.05986067711 8350899.104451955 0.0
-128180.47286893248 8747053.153031502 0.0
-765812.7997897617 6823809.77107051 0.0
-1283933.2065302085 6485192.95672069 0.0
163238.45553591588 7711150.774910727 0.0
-405539.6597535306 7808808.95942001 0.0
-50902.03081707632 8850630.654877739 0.0
-359900.63575972104 6537926.179910397 0.0
254788.85581372253 7848742.209877542 0.0
-98457.23332006623 6618275.445379142 0.0
6263.46647277719 7290069.2785935905 0.0
-8733.898586466128 7866491.9366089115 0.0
-184853.8461315974 4404416.599100381 0.0
-364694.60296700406 6366785.438094145 0.0
-569352.828998714 7805275.23168357 0.0
-338554.9181350161 8701375.255585652 0.0
-493659.52862536174 6874814.545128457 0.0
-6318.880909640623 8156274.923553409 0.0
-939387.5962230283 5547392.564525671 0.0
-998287.7565474041 5919122.258745924 0.0
921750.9113720073 5510897.498617763 0.0
617269.570064301 10562230.495437715 0.0
1332895.2284378163 8400931.36336991 0.0
579778.9262268994 5005990.795543279 0.0
935664.9904750007 5917083.190886756 0.0
-485154.9111135612 4651637.728605343 0.0
-1679120.2049585795 8416161.18047446 0.0
-650191.5463501682 10529108.710464133 0.0
-1141404.6904598682 8189595.657767045 0.0
POINT_DATA 55
VECTORS displacements float
0.0 0.0 0.0
3.631554358768406e-05 2.9970729574839515e-06 0.0
3.8625399486157855e-05 2.1621137066484215e-06 0.0
6.356565146247642e-05 2.254065756363518e-06 0.0
6.528455281663746e-05 3.0934059774611322e-06 0.0
0.00010723766940933081 5.161748590579385e-06 0.0
0.0001074800089614963 -5.202380483361724e-06 0.0
6.523313369577348e-05 -2.8772996449142335e-06 0.0
6.333974551918497e-05 -1.9982915548433374e-06 0.0
3.8475436548839626e-05 -2.170805486089019e-06 0.0
3.627891332512467e-05 -3.0711902922326023e-06 0.0
0.0 0.0 0.0
2.0063798741330978e-05 3.6810830135227293e-06 0.0
3.651068215076412e-05 2.6975002735914044e-06 0.0
5.096648002588968e-05 2.1048801608565536e-06 0.0
6.484063859306324e-05 2.7997058563184066e-06 0.0
8.2693957590665e-05 2.9482441519118663e-06 0.0
9.705355502253907e-05 2.311254771556816e-07 0.0
8.259839954233068e-05 -2.625374702951277e-06 0.0
6.48635711307476e-05 -2.589584895202168e-06 0.0
5.0801332978597105e-05 -1.998321119252723e-06 0.0
3.6606623797680965e-05 -2.7918352106143917e-06 0.0
2.010934614477889e-05 -3.594117112785549e-06 0.0
0.0 0.0 0.0
4.546005156772208e-05 -7.867121832662106e-07 0.0
3.997603242941227e-05 -1.331157024517673e-06 0.0
4.314349278795596e-05 -4.1803769706881255e-07 0.0
4.965078864591398e-05 -1.954677171603081e-07 0.0
5.640585013445193e-05 1.0579623851293156e-06 0.0
4.573706204933263e-05 8.992709612334528e-07 0.0
3.89260547512098e-05 1.5199975568454247e-06 0.0
5.642344739556178e-05 -7.510607438793723e-07 0.0
3.4453066926081515e-05 -2.5513654472904255e-06 0.0
3.384530739111307e-05 2.6789499125777664e-06 0.0
3.110108849169633e-05 1.2668577947726936e-06 0.0
5.093308606146784e-05 3.8705771862849327e-07 0.0
1.613737062694414e-05 1.0235801870587792e-07 0.0
3.706772130167268e-05 -5.976060107998075e-07 0.0
2.772191869299219e-05 -1.3494341786829576e-06 0.0
4.254062224546368e-05 3.0790011071105073e-07 0.0
5.575484366207259e-05 1.4417961535803584e-08 0.0
5.1010229171830914e-05 -7.784196481010196e-07 0.0
5.5592078285867466e-05 4.5845135988603176e-07 0.0
6.133751802604976e-05 4.647942742088992e-07 0.0
6.116335122126813e-05 -5.118204311071742e-07 0.0
6.69433041497378e-05 -1.523013037306735e-07 0.0
6.76377866945377e-05 -1.9518454273461547e-06 0.0
6.743928415244658e-05 1.9629665929245187e-06 0.0
7.74337540801084e-05 -2.8226757400178945e-07 0.0
6.199532218416869e-05 -1.3699684869510482e-06 0.0
6.150305174405308e-05 1.3488802005670857e-06 0.0
8.91018823634142e-05 4.6242469610623204e-07 0.0
9.001306246341444e-05 -5.795163208136501e-07 0.0
5.4593597182636726e-05 -3.546039684396009e-07 0.0
5.126498259589423e-05 9.91145700664362e-07 0.0