# vtk DataFile Version 2.0
Really cool data
ASCII
DATASET POLYDATA
POINTS 50 float
0.0 0.0 0
0.125 0.0 0
0.125 0.025 0
0.175 0.025 0
0.175 0.0 0
0.3 0.0 0
0.3 0.1 0
0.175 0.1 0
0.175 0.07500000000000001 0
0.125 0.07500000000000001 0
0.125 0.1 0
0.0 0.1 0
0.06250000013078053 0.0 0
0.125 0.01250000001946666 0
0.1500000000542101 0.025 0
0.175 0.01249999996954492 0
0.2375000000379471 0.0 0
0.3 0.05000000007786663 0
0.2374999999024218 0.09999999999999999 0
0.175 0.08749999992410586 0
0.1499999998970008 0.07500000000000002 0
0.125 0.08749999998373698 0
0.06249999984482352 0.1 0
0.0 0.05000000007786663 0
0.1368030376589693 0.05881183609165548 0
0.117775623603241 0.06013038045187373 0
0.162500000027105 0.041237976310672 0
0.107309198575727 0.08007003580073291 0
0.19212308841714 0.01780898906300205 0
0.1901864428630649 0.07906464689515667 0
0.1094436020031466 0.01874551931480652 0
0.1291338851563814 0.04361389724778988 0
0.1114151539582876 0.04074826126195277 0
0.1624999999485004 0.06043297861285827 0
0.1787552186679302 0.06017424107710374 0
0.1459442698801169 0.044214050543324 0
0.08315066519904095 0.03531547250623295 0
0.08792340551106274 0.06122065477279754 0
0.04632429568687593 0.05307658962797577 0
0.172304892364689 0.04902546201312089 0
0.1850949657786914 0.04563198790008897 0
0.1965712954394372 0.05628532213281995 0
0.2087061817377232 0.03693437174515411 0
0.253205755539793 0.04383466385996593 0
0.2266612590318197 0.06518650077867166 0
0.1762118450318149 0.03854480335931212 0
0.1861593669885893 0.03182859057267874 0
0.02720607395441411 0.0257691474264606 0
0.1502126267551182 0.05641628411908355 0
0.2685302890076256 0.07336950662279432 0
POLYGONS 74 296
3 5 17 43
3 8 20 33
3 28 16 42
3 2 31 32
3 20 9 24
3 30 2 32
3 18 29 44
3 25 27 37
3 24 9 25
3 16 5 43
3 8 33 34
3 27 22 37
3 12 36 38
3 42 43 44
3 33 26 39
3 26 33 48
3 35 26 48
3 11 23 38
3 22 11 38
3 14 26 35
3 44 43 49
3 32 25 37
3 42 16 43
3 6 18 49
3 29 34 41
3 24 31 35
3 24 25 31
3 12 38 47
3 0 12 47
3 7 19 29
3 1 13 30
3 21 10 27
3 15 4 28
3 18 44 49
3 31 25 32
3 28 42 46
3 37 22 38
3 30 32 36
3 43 17 49
3 20 24 48
3 34 33 39
3 33 20 48
3 17 6 49
3 23 0 47
3 39 26 45
3 24 35 48
3 34 39 40
3 40 39 45
3 38 23 47
3 3 15 28
3 9 21 27
3 13 2 30
3 19 8 29
3 41 42 44
3 36 32 37
3 45 3 46
3 42 40 46
3 34 40 41
3 41 40 42
3 40 45 46
3 3 28 46
3 4 16 28
3 10 22 27
3 12 1 30
3 2 14 31
3 14 3 26
3 26 3 45
3 18 7 29
3 29 8 34
3 25 9 27
3 12 30 36
3 31 14 35
3 29 41 44
3 36 37 38
CELL_DATA 74
SCALARS mises double 1
LOOKUP_TABLE default
392964.48434042843 1020811.4610411725 356173.0957307979 636345.2425245835 1001971.4592836088 626339.7077835405 403695.4404624086 590285.011651262 691886.183522536 520727.75751973933 736980.247867048 383630.69983462914 491438.1274066137 453923.613324619 684991.5022649611 790308.2150102828 798830.1739970526 406504.19986767607 445386.52698751556 811633.8262017228 445877.5475761007 603535.1814646379 470071.18181874626 569259.2696412363 660161.5404799344 764973.4557994939 716030.2852933162 460173.77891067404 426984.6311330577 139053.56853349964 148919.21521767616 167507.7171959694 180458.8373869572 448762.71443842497 695911.5674904258 575735.7582170618 499695.2115356689 529750.8201083398 333928.7150742599 842110.042373174 732868.1988783216 827739.8185598025 484315.134903395 388970.90312629053 759300.6824749269 833178.1256047526 690698.954920406 636182.8503462361 416750.5545749138 357637.7720849545 415687.43536120123 389097.630375943 465120.94538828084 568783.9288166066 607537.7107062492 570828.2415014448 538090.0973829194 595042.2007442276 631026.1918950207 691425.5027184203 580499.1863533349 285350.82542231015 264256.0945983116 265009.46190475073 958392.6596483669 1010627.0241321751 700601.1770240382 284587.21253813984 589198.3359642642 574999.5790006929 379614.9313970306 775308.9244062364 472081.60374704376 514869.1438460258
VECTORS principal_stress_1 float
382096.4764868645 -84602.0641992308 0.0
1062503.8620079479 98687.83412706656 0.0
357975.43837782374 -56883.474527969665 0.0
672430.8145885353 121333.92662938275 0.0
1045933.8367420787 -100308.51352947843 0.0
644009.5564792729 94549.23618296033 0.0
400851.6990608746 32606.946098394128 0.0
602486.3267768981 -114812.33953869672 0.0
752562.7858820758 -156826.27365984072 0.0
508213.449972873 -39241.41769751117 0.0
802090.6898743567 167292.5608229685 0.0
367367.92096347024 -25243.530130467116 0.0
474905.03677176934 8358.965259009276 0.0
435389.58474731544 4899.465624190039 0.0
744950.5820532315 8982.06036033742 0.0
859963.7993271509 19215.225465225605 0.0
840624.163399541 -24996.14575919337 0.0
443575.2072124367 -7946.344107008071 0.0
445723.34262803046 -36784.54483890398 0.0
835793.0324009384 -18566.25434309334 0.0
454287.5900873303 26175.25164393412 0.0
601714.9086019243 14912.987756579994 0.0
458286.1592470808 -43285.461999464555 0.0
542883.9664683995 50197.68583459886 0.0
681400.152761291 116567.54090470272 0.0
822609.0763792052 3008.922288103543 0.0
767495.5844363195 20379.235990215006 0.0
449923.93743078073 25352.867390987267 0.0
439746.7365801549 31690.24304890523 0.0
107145.19949074938 10760.389833297786 0.0
112615.96492202772 3966.8696510909367 0.0
142611.89569176012 -13327.95900429238 0.0
139929.914161799 -3354.184341471213 0.0
449084.88874537265 30946.735061738484 0.0
717535.7303974378 -33077.594555010655 0.0
600356.5463416984 -132565.2504899655 0.0
486553.9694956745 -5556.243858464667 0.0
541264.0034581022 118906.6279914928 0.0
334119.9021315786 47904.7124645904 0.0
861179.1831361473 -30211.58386180976 0.0
782006.8593532336 4703.6624049269385 0.0
845695.6020376092 18982.731387374486 0.0
458556.9380488392 83557.63393536936 0.0
424709.2825094505 20800.944931735612 0.0
811498.3186370552 -20650.221962426847 0.0
874390.5998873954 -19426.43075444704 0.0
726327.8478214233 36698.58579803293 0.0
673651.6183660788 -57404.820631563285 0.0
430186.792896069 3462.609670334979 0.0
495171.2407464863 -305115.8005017884 0.0
535590.7385589547 -296807.6493698356 0.0
520871.80126287654 306410.19530639943 0.0
567130.6295246816 283736.4891062463 0.0
548113.8200776001 -6703.549173576369 0.0
579709.7985856883 -6218.089230120622 0.0
624607.627975364 -140023.927879536 0.0
554987.1859907547 -68906.7236363874 0.0
613460.7963769903 -406.8667095569618 0.0
621093.8438938514 13765.077599928409 0.0
722319.3241151591 -73800.76705226625 0.0
611338.3437513545 -115237.63208501456 0.0
328896.79885304003 -120044.04507349605 0.0
304424.0514727931 -111795.63763522009 0.0
305164.21071543323 112133.2990104626 0.0
1014103.3167988476 130455.34660449841 0.0
1060180.174921668 -96368.85611068107 0.0
767752.9675199045 -161663.87012123692 0.0
331128.5944619462 129071.74888614364 0.0
625443.703254295 104375.96010271723 0.0
602729.4308666796 -88012.93342392561 0.0
363735.01835177 18130.747058946385 0.0
808353.3338708164 31880.832488448916 0.0
481234.35778880806 103712.9169098843 0.0
472748.4467508951 5114.163111746254 0.0
VECTORS principal_stress_2 float
84602.06419923078 382096.4764868645 0.0
-98687.83412706648 1062503.8620079479 0.0
56883.474527969716 357975.43837782374 0.0
-121333.92662938265 672430.8145885353 0.0
100308.5135294785 1045933.8367420787 0.0
-94549.23618296026 644009.556479273 0.0
-32606.94609839412 400851.6990608746 0.0
114812.33953869672 602486.3267768981 0.0
156826.27365984078 752562.7858820758 0.0
39241.41769751125 508213.449972873 0.0
-167292.56082296846 802090.6898743567 0.0
25243.530130467145 367367.92096347024 0.0
-8358.965259009265 474905.03677176934 0.0
-4899.465624189999 435389.58474731544 0.0
-8982.060360337451 744950.5820532315 0.0
-19215.22546522553 859963.7993271509 0.0
24996.145759193358 840624.163399541 0.0
7946.344107008111 443575.2072124367 0.0
36784.544838904025 445723.34262803046 0.0
18566.254343093344 835793.0324009384 0.0
-26175.251643934058 454287.5900873303 0.0
-14912.987756580013 601714.9086019243 0.0
43285.46199946456 458286.1592470808 0.0
-50197.68583459877 542883.9664683995 0.0
-116567.54090470265 681400.152761291 0.0
-3008.92228810349 822609.0763792052 0.0
-20379.23599021494 767495.5844363195 0.0
-25352.867390987227 449923.93743078073 0.0
-31690.24304890524 439746.7365801549 0.0
-10760.389833297777 107145.19949074938 0.0
-3966.869651090928 112615.96492202772 0.0
13327.959004292385 142611.89569176012 0.0
3354.1843414712225 139929.914161799 0.0
-30946.73506173849 449084.88874537265 0.0
33077.59455501065 717535.7303974378 0.0
132565.2504899655 600356.5463416984 0.0
5556.243858464727 486553.9694956745 0.0
-118906.62799149277 541264.0034581022 0.0
-47904.7124645904 334119.9021315786 0.0
30211.58386180981 861179.1831361473 0.0
-4703.6624049268985 782006.8593532336 0.0
-18982.731387374355 845695.6020376092 0.0
-83557.63393536935 458556.9380488392 0.0
-20800.94493173562 424709.2825094505 0.0
20650.22196242681 811498.3186370552 0.0
19426.43075444715 874390.5998873954 0.0
-36698.58579803285 726327.8478214233 0.0
57404.820631563365 673651.6183660788 0.0
-3462.6096703349153 430186.792896069 0.0
305115.8005017884 495171.2407464863 0.0
296807.6493698356 535590.7385589547 0.0
-306410.1953063995 520871.80126287654 0.0
-283736.4891062463 567130.6295246816 0.0
6703.549173576355 548113.8200776001 0.0
6218.089230120599 579709.7985856883 0.0
140023.9278795361 624607.627975364 0.0
68906.72363638745 554987.1859907547 0.0
406.8667095570363 613460.7963769903 0.0
-13765.07759992841 621093.8438938514 0.0
73800.76705226622 722319.3241151591 0.0
115237.63208501464 611338.3437513545 0.0
120044.04507349609 328896.79885304003 0.0
111795.63763522009 304424.0514727931 0.0
-112133.2990104626 305164.21071543323 0.0
-130455.34660449832 1014103.3167988476 0.0
96368.85611068123 1060180.1749216677 0.0
161663.87012123692 767752.9675199045 0.0
-129071.74888614363 331128.5944619462 0.0
-104375.96010271728 625443.703254295 0.0
88012.93342392564 602729.4308666796 0.0
-18130.747058946326 363735.01835177 0.0
-31880.832488448916 808353.3338708164 0.0
-103712.9169098843 481234.3577888081 0.0
-5114.163111746261 472748.4467508951 0.0
POINT_DATA 50
VECTORS displacements float
0.0 0.0 0.0
2.137368752252132e-06 9.985718191008599e-08 0.0
2.7709493585536408e-06 4.732876337832794e-08 0.0
5.202060783784261e-06 -3.821058209053404e-08 0.0
5.803497930988167e-06 1.9862621950629245e-08 0.0
8.240889901597618e-06 5.976856522254132e-08 0.0
8.45061377715128e-06 -5.920110560370165e-07 0.0
5.89866117390506e-06 -2.1129365208980457e-07 0.0
5.269608834006043e-06 -1.3853265350408323e-07 0.0
2.78484041976187e-06 -9.589116520951844e-08 0.0
2.167858974998767e-06 -1.5411229853864307e-07 0.0
0.0 0.0 0.0
1.3035368931129982e-06 3.000974672813365e-07 0.0
2.242726078006442e-06 5.2440313718638246e-08 0.0
3.955988450490687e-06 7.794250051356166e-08 0.0
5.717217957086777e-06 -3.531827241418436e-08 0.0
6.7024571984911865e-06 1.2272240071450202e-07 0.0
7.709595207936373e-06 -2.1989947110334952e-07 0.0
6.795071253727031e-06 -3.8330608479407506e-07 0.0
5.779713671749335e-06 -1.6768773852575755e-07 0.0
4.016585369150328e-06 -1.9350700072889328e-07 0.0
2.2754376044468284e-06 -1.1106878996098137e-07 0.0
1.3361129578340599e-06 -3.235785592020254e-07 0.0
0.0 0.0 0.0
3.4761245116968533e-06 -4.611918399016757e-08 0.0
2.7960153656821433e-06 -8.044968009670488e-08 0.0
4.490062896533639e-06 -6.764840962135012e-08 0.0
2.2115789008290918e-06 -2.0215093407841174e-07 0.0
5.806216397790436e-06 4.978289494300726e-08 0.0
5.784393028650721e-06 -2.547868423565942e-07 0.0
2.2028084290406613e-06 1.4917606051032583e-07 0.0
3.197104125828754e-06 -3.2348216137306055e-08 0.0
2.5964340125328222e-06 2.9409295746248114e-08 0.0
4.521067071074634e-06 -7.394493665873309e-08 0.0
5.1139837382632745e-06 -1.211700995302422e-07 0.0
3.839920725513077e-06 -1.2331320084685078e-08 0.0
1.7938482691435674e-06 9.892158571164554e-08 0.0
1.932420535083883e-06 -1.1497861839978611e-07 0.0
9.482921208022387e-07 -3.3986906648863834e-08 0.0
4.840384600577641e-06 -7.78167384794454e-08 0.0
5.260974627289875e-06 -7.915057076742741e-08 0.0
5.622741427520368e-06 -1.5235470454036763e-07 0.0
5.956432932100779e-06 -1.7933415414019245e-08 0.0
6.923464534075818e-06 -1.6418891995984674e-07 0.0
6.422688160944505e-06 -2.2652872612430456e-07 0.0
5.016637016179391e-06 -5.2824178663534913e-08 0.0
5.409592203212313e-06 -2.2684891743733358e-08 0.0
5.329066905830448e-07 5.23257532964202e-08 0.0
4.0261544901342305e-06 -7.47985748988378e-08 0.0
7.357720319471446e-06 -2.789087019292008e-07 0.0