# vtk DataFile Version 2.0
Really cool data
ASCII
DATASET POLYDATA
POINTS 55 float
0.0 0.0 0
0.125 0.0 0
0.125 0.001759999999999998 0
0.175 0.001759999999999998 0
0.175 0.0 0
0.3 0.0 0
0.3 0.1 0
0.175 0.1 0
0.175 0.09824000000000001 0
0.125 0.09824000000000001 0
0.125 0.1 0
0.0 0.1 0
0.06250000013078053 0.0 0
0.125 0.0008800000017690676 0
0.1500000000542101 0.001759999999999998 0
0.175 0.0008799999975056776 0
0.2375000000379471 0.0 0
0.3 0.05000000007786663 0
0.2374999999024218 0.09999999999999999 0
0.175 0.09911999999728947 0
0.1499999998970008 0.09824000000000002 0
0.125 0.09911999997831597 0
0.06249999984482352 0.1 0
0.0 0.05000000007786663 0
0.1374454051308669 0.0819402594700859 0
0.162500000027105 0.01799797628574772 0
0.1375000000271051 0.01799797630922138 0
0.150000000039581 0.03128513671193082 0
0.1625763756048836 0.08345486742558991 0
0.1473469847530027 0.06955679579762356 0
0.1500000000370003 0.01726027232672498 0
0.1331988972618392 0.03511239562221893 0
0.1149697110250154 0.08215108471895115 0
0.1669790325598892 0.03538327758069654 0
0.1106978418471325 0.02393996199558402 0
0.114486501393353 0.04441009878792262 0
0.189754379966309 0.02415196762301265 0
0.1854375934338117 0.04567751911004873 0
0.1335663446581115 0.06445605753429595 0
0.1424186342669452 0.04636683007892739 0
0.1074026046478503 0.06472204327925124 0
0.08379280700660206 0.04844537271686977 0
0.1699290112560772 0.05483234985686617 0
0.1923995485563822 0.06966913951960281 0
0.2163371830871373 0.04964176618051766 0
0.04516989417567255 0.05760013223846077 0
0.2554315766259524 0.05835197083044183 0
0.1732886581933014 0.07401106426224839 0
0.1505214935983711 0.0802968674944126 0
0.1564106087057157 0.04327668130854503 0
0.1520924606333017 0.05705715654525537 0
0.2727506478862317 0.0260653024308434 0
0.02706412337607279 0.02635716649618227 0
0.127034447688786 0.05071903090366297 0
0.159292497339823 0.069868183563666 0
POLYGONS 84 336
3 29 38 50
3 38 39 50
3 20 9 24
3 2 26 34
3 40 22 41
3 18 43 44
3 25 3 36
3 24 9 32
3 11 23 45
3 17 6 46
3 22 11 45
3 39 38 53
3 6 18 46
3 29 24 38
3 44 16 46
3 12 41 45
3 26 27 31
3 27 26 30
3 27 25 33
3 0 12 52
3 16 5 51
3 41 22 45
3 25 27 30
3 18 44 46
3 33 42 49
3 46 16 51
3 31 27 39
3 26 14 30
3 24 29 48
3 12 45 52
3 33 37 42
3 28 20 48
3 14 25 30
3 24 32 38
3 38 40 53
3 42 37 43
3 40 35 53
3 20 24 48
3 29 50 54
3 31 39 53
3 28 48 54
3 26 31 34
3 33 25 36
3 39 27 49
3 23 0 52
3 49 42 50
3 5 17 51
3 42 43 47
3 50 42 54
3 48 29 54
3 27 33 49
3 33 36 37
3 38 32 40
3 34 31 35
3 45 23 52
3 35 31 53
3 17 46 51
3 35 40 41
3 47 28 54
3 43 37 44
3 42 47 54
3 39 49 50
3 12 1 13
3 12 13 2
3 12 2 34
3 2 14 26
3 14 3 25
3 16 3 15
3 3 16 36
3 16 15 4
3 19 18 7
3 8 18 19
3 18 8 43
3 8 20 28
3 8 28 47
3 43 8 47
3 9 21 22
3 9 22 32
3 21 10 22
3 12 34 41
3 36 16 44
3 32 22 40
3 34 35 41
3 37 36 44
CELL_DATA 84
SCALARS mises double 1
LOOKUP_TABLE default
6741891.176559579 6745601.22702865 7194923.758606519 6858321.173237264 6745460.375936874 6586805.262826788 6920370.228379057 6808481.990362122 6018265.945687975 5864656.512120708 6556012.621331127 6752790.73596822 7867668.626328158 6789235.650356668 6252791.7016335 6801260.784579742 6779691.862928394 6909568.738323672 6785745.600134203 6428270.945858888 8637646.141297586 6909409.326972696 6914994.037673999 6096308.873158365 6712156.097873138 6441701.187170597 6753102.734292725 6917793.907470623 6898932.726208585 6675744.801725691 6603652.5162160415 6943310.278135544 6921630.361311131 6797212.350567646 6795062.989897005 6683611.489694923 6846137.67917696 6913220.325437478 6777382.864340682 6767570.786358222 6887857.261295984 6757332.102459046 6813549.925909961 6733331.475171788 5949562.360597067 6700097.325127682 7421294.592842598 6734649.395732132 6711441.103353343 6790367.394191439 6749534.773454907 6729198.205646012 6808115.759344726 6835505.231837327 6122334.206268357 6792252.3767332425 4606988.744924077 6855272.339062626 6754165.9062760705 6447260.455294602 6764070.278157544 6723489.926613627 6451325.833917091 6442892.294231624 6457701.831583822 7192231.647234113 7184843.097743493 6735048.681675923 6711381.132583556 6743864.731315595 6736155.234685708 6727349.347956951 6709000.337480358 7202391.538155376 6972418.708416613 6829256.940492938 6438374.458375841 6450107.616495593 6446802.169168086 6680442.96736504 6581471.290492106 6571816.418745953 6856660.035384588 6514882.213125584
VECTORS principal_stress_1 float
6801160.282463744 12289.738118760963 0.0
6792420.894028002 4393.432943853995 0.0
7214617.487223418 -70285.57599561222 0.0
6861796.16125064 137265.5955801419 0.0
6692519.526045884 61415.517177256 0.0
6711271.006900837 220895.0838605445 0.0
6897154.994191884 -157189.28083190264 0.0
6818934.227746096 -163841.44594580831 0.0
6567263.166848333 -131997.3659411137 0.0
5706199.270662391 1260818.3711421294 0.0
6743623.873244778 -346082.9939801409 0.0
6791202.590780901 -9727.105809937413 0.0
7880230.709748416 377350.67197359266 0.0
6838036.472554247 -30207.634290969094 0.0
6459326.785340147 -126337.82340136683 0.0
6774167.2159516625 -82183.34256510533 0.0
6827944.588563339 32864.96924195752 0.0
6944669.481220608 6747.358269359961 0.0
6828622.775319799 -47878.23190190589 0.0
6723165.654103469 338091.30647568405 0.0
8287032.797576845 -722467.0161159788 0.0
6881517.136242207 102926.1428757457 0.0
6950701.347532385 -15567.712181258119 0.0
6121424.287170341 416833.2671712902 0.0
6786446.469279249 -16430.27525495991 0.0
6715788.79704917 -296496.3203560184 0.0
6803064.336730159 -13711.578779501047 0.0
6940495.3331472855 12125.078744976476 0.0
6949392.331080287 -2710.9906017085927 0.0
6771699.24158453 253620.3488788015 0.0
6666478.076806678 -10017.281850440488 0.0
6969611.598662683 4148.9978737979745 0.0
6944748.594424569 -8904.586575932888 0.0
6831669.222322674 22918.304030562187 0.0
6810617.292354565 28879.061048303767 0.0
6762522.136048985 57893.078773546826 0.0
6811269.326629059 10910.591795797029 0.0
6935569.718412291 -13575.284127074094 0.0
6837798.881890745 12553.368740976075 0.0
6798946.135556392 4177.369433405673 0.0
6944614.525126846 57502.317609313766 0.0
6789679.831324967 -11852.78423807119 0.0
6861178.864680215 -56308.54733498108 0.0
6791231.784496134 -1214.1569545069265 0.0
6493551.103479231 210212.64371236312 0.0
6766788.574521386 -3917.672518079912 0.0
6993730.870076224 -1183485.3738132196 0.0
6782628.666518372 55196.1365039987 0.0
6771034.226023163 19601.05795987187 0.0
6828904.968726564 12029.736982755281 0.0
6811515.211789496 -8864.754783137034 0.0
6799661.465294021 -105953.5174323093 0.0
6800072.692285154 -14999.350789676944 0.0
6805389.107563282 -19205.12244275462 0.0
6422981.945934292 -36302.641043570824 0.0
6821043.545141795 -2259.2821696562833 0.0
4708974.989494888 -780577.824448658 0.0
6812631.636407109 -6830.3729659540095 0.0
6803719.335943721 47744.34619613772 0.0
6500610.308729674 89770.47203978925 0.0
6821108.257505282 25734.57190356499 0.0
6789162.129247428 -9824.263029167916 0.0
6452604.764897992 90852.67546256787 0.0
6453114.439802514 272536.4372496934 0.0
6459621.375011494 80467.91609628481 0.0
7203114.492368529 56410.327922349956 0.0
7200181.942155534 -55625.533458097016 0.0
6745734.4857193 -284894.7516099414 0.0
6766095.791057912 -230271.8604426035 0.0
6745201.699311464 -94972.43959937536 0.0
6737490.632070701 94863.86853975768 0.0
6738022.809384193 284569.0631066233 0.0
6755846.299947611 215607.77059914274 0.0
7212018.222071208 52131.60155902824 0.0
6989215.092532841 102852.06584624542 0.0
6826358.296490862 159390.92912872368 0.0
6448589.563097584 -272345.3374996311 0.0
6454144.8089865595 -111015.02190950832 0.0
6448080.245647426 -90788.97187049243 0.0
6640154.428898785 -59724.35590816 0.0
6732947.10889989 -255371.73800300466 0.0
6549086.621479504 9051.249844353446 0.0
6820878.854622434 11192.647248558585 0.0
6563311.521713948 -121436.96262554193 0.0
VECTORS principal_stress_2 float
-12289.738118761132 6801160.282463744 0.0
-4393.432943853511 6792420.894028002 0.0
70285.57599561336 7214617.487223418 0.0
-137265.59558014077 6861796.16125064 0.0
-61415.51717725622 6692519.526045884 0.0
-220895.08386054478 6711271.006900837 0.0
157189.2808319029 6897154.994191884 0.0
163841.4459458087 6818934.227746096 0.0
131997.3659411141 6567263.166848333 0.0
-1260818.371142129 5706199.270662391 0.0
346082.9939801412 6743623.873244778 0.0
9727.105809937237 6791202.590780901 0.0
-377350.671973592 7880230.709748416 0.0
30207.634290968977 6838036.472554247 0.0
126337.82340136675 6459326.785340147 0.0
82183.34256510575 6774167.2159516625 0.0
-32864.969241956744 6827944.588563339 0.0
-6747.358269359465 6944669.481220608 0.0
47878.23190190697 6828622.775319799 0.0
-338091.30647568393 6723165.654103469 0.0
722467.0161159801 8287032.797576844 0.0
-102926.14287574474 6881517.136242208 0.0
15567.712181257823 6950701.347532385 0.0
-416833.26717129024 6121424.287170341 0.0
16430.2752549608 6786446.469279249 0.0
296496.32035601867 6715788.79704917 0.0
13711.578779501326 6803064.336730159 0.0
-12125.078744976525 6940495.3331472855 0.0
2710.9906017093313 6949392.331080287 0.0
-253620.34887880136 6771699.24158453 0.0
10017.281850440946 6666478.076806678 0.0
-4148.997873798203 6969611.598662683 0.0
8904.586575933004 6944748.594424569 0.0
-22918.304030561772 6831669.222322674 0.0
-28879.061048303025 6810617.292354565 0.0
-57893.07877354618 6762522.136048985 0.0
-10910.591795797243 6811269.326629059 0.0
13575.284127073766 6935569.718412291 0.0
-12553.368740975739 6837798.881890745 0.0
-4177.369433404595 6798946.135556392 0.0
-57502.31760931394 6944614.525126846 0.0
11852.784238071265 6789679.831324967 0.0
56308.547334982155 6861178.864680215 0.0
1214.156954506901 6791231.784496134 0.0
-210212.64371236338 6493551.10347923 0.0
3917.6725180800404 6766788.574521386 0.0
1183485.3738132191 6993730.870076224 0.0
-55196.13650399824 6782628.666518372 0.0
-19601.05795987159 6771034.226023163 0.0
-12029.736982754204 6828904.968726564 0.0
8864.75478313678 6811515.211789496 0.0
105953.5174323103 6799661.465294021 0.0
14999.350789677641 6800072.692285154 0.0
19205.12244275448 6805389.107563282 0.0
36302.64104357132 6422981.945934292 0.0
2259.2821696567094 6821043.545141795 0.0
780577.8244486586 4708974.989494888 0.0
6830.372965953997 6812631.636407109 0.0
-47744.34619613717 6803719.335943721 0.0
-89770.47203978928 6500610.308729674 0.0
-25734.571903565302 6821108.257505282 0.0
9824.263029168605 6789162.129247428 0.0
-90852.67546256809 6452604.764897992 0.0
-272536.4372496926 6453114.439802514 0.0
-80467.9160962844 6459621.375011494 0.0
-56410.327922349155 7203114.492368529 0.0
55625.53345809812 7200181.942155534 0.0
284894.75160994113 6745734.4857193 0.0
230271.86044260376 6766095.791057912 0.0
94972.43959937633 6745201.699311464 0.0
-94863.86853975705 6737490.632070701 0.0
-284569.0631066232 6738022.809384193 0.0
-215607.77059914183 6755846.299947611 0.0
-52131.60155902792 7212018.222071208 0.0
-102852.0658462453 6989215.092532841 0.0
-159390.929128724 6826358.296490862 0.0
272345.33749963186 6448589.563097584 0.0
111015.02190950814 6454144.8089865595 0.0
90788.97187049309 6448080.245647426 0.0
59724.355908160775 6640154.428898785 0.0
255371.73800300443 6732947.10889989 0.0
-9051.249844352398 6549086.621479504 0.0
-11192.64724855883 6820878.854622434 0.0
121436.96262554273 6563311.521713948 0.0
POINT_DATA 55
VECTORS displacements float
0.0 0.0 0.0
3.919390017276148e-05 3.0479259126075967e-06 0.0
3.923865705607369e-05 2.9392105190847934e-06 0.0
5.653735826217537e-05 2.7465130221347434e-06 0.0
5.6549547203897595e-05 2.860158175350865e-06 0.0
0.00010204199079068507 5.2851441408796455e-06 0.0
0.00010066505148541829 -4.6118273973480405e-06 0.0
5.677582694344719e-05 -3.441098984585631e-06 0.0
5.675110618310061e-05 -3.3275837497134075e-06 0.0
3.942592240208645e-05 -3.2980841520233984e-06 0.0
3.93863705187191e-05 -3.4067233151114152e-06 0.0
0.0 0.0 0.0
1.9807754055380598e-05 3.3273442299183677e-06 0.0
3.920705850931738e-05 2.9933864751984816e-06 0.0
4.7890844654962845e-05 2.760675462499252e-06 0.0
5.655309092894389e-05 2.8031456172415425e-06 0.0
7.681476890145086e-05 1.9236436347486697e-06 0.0
9.145588658508831e-05 -4.557057787866471e-07 0.0
7.701788153785096e-05 -2.9511718538417425e-06 0.0
5.677309374082887e-05 -3.3841516024967748e-06 0.0
4.8087587362542524e-05 -3.231227367561633e-06 0.0
3.939693282085741e-05 -3.3522221191255207e-06 0.0
2.0013817736618243e-05 -3.5022235275832974e-06 0.0
0.0 0.0 0.0
4.391291250454451e-05 -2.1645784559252677e-06 0.0
5.211951569440102e-05 1.6531230768707695e-06 0.0
4.3786093498436306e-05 1.7420096224371965e-06 0.0
4.7991620043246715e-05 8.714226000939117e-07 0.0
5.230012400757415e-05 -2.2678776863373115e-06 0.0
4.720462658307081e-05 -1.4063004236808852e-06 0.0
4.794881722036446e-05 1.7602450281615546e-06 0.0
4.252499853771583e-05 7.193540302184415e-07 0.0
3.6545119739749064e-05 -2.3198613551993447e-06 0.0
5.3540929683272476e-05 5.70962753003148e-07 0.0
3.510262761365138e-05 1.628567740645676e-06 0.0
3.643141263721628e-05 2.055599327032562e-07 0.0
6.10659938808081e-05 1.1822180429163112e-06 0.0
5.9447113390982166e-05 -6.965226200542933e-08 0.0
4.270625085776847e-05 -1.0989051481279759e-06 0.0
4.5567384476636264e-05 -5.912575882623077e-09 0.0
3.4147421378039846e-05 -1.187235071061872e-06 0.0
2.636169509598982e-05 1.2719681732930358e-08 0.0
5.450693440230105e-05 -5.635396563142098e-07 0.0
6.190399159350663e-05 -1.4586691887795282e-06 0.0
6.911916731226424e-05 -3.5368407377821314e-07 0.0
1.3689535276459566e-05 -5.505224427411359e-07 0.0
8.088193738304808e-05 -2.8960905013636845e-07 0.0
5.571667345081545e-05 -1.724719340746696e-06 0.0
4.826797841507593e-05 -2.073976353025931e-06 0.0
5.011128364863798e-05 1.370521104438287e-07 0.0
4.873042040260567e-05 -6.621965004793799e-07 0.0
8.726889693806052e-05 8.376509298831231e-07 0.0
8.108625400494798e-06 5.255441125883213e-07 0.0
4.056133505435563e-05 -2.376587428928393e-07 0.0
5.1118238593977475e-05 -1.4353221563641117e-06 0.0