# vtk DataFile Version 2.0
Really cool data
ASCII
DATASET POLYDATA
POINTS 60 float
0.0 0.0 0
0.125 0.0 0
0.125 0.0167 0
0.175 0.0167 0
0.175 0.0 0
0.3 0.0 0
0.3 0.1 0
0.175 0.1 0
0.175 0.08330000000000001 0
0.125 0.08330000000000001 0
0.125 0.1 0
0.0 0.1 0
0.06250000013078053 0.0 0
0.125 0.00835000001856792 0
0.1500000000542101 0.0167 0
0.175 0.008349999977976176 0
0.2375000000379471 0.0 0
0.3 0.05000000007786663 0
0.2374999999024218 0.09999999999999999 0
0.175 0.09164999996476342 0
0.1499999998970008 0.08330000000000001 0
0.125 0.09164999996476345 0
0.06249999984482352 0.1 0
0.0 0.05000000007786663 0
0.1375724472616825 0.06630250690192133 0
0.1173370865210781 0.06518594834038861 0
0.162500000027105 0.03293797628574772 0
0.1285078358433703 0.05073144617439911 0
0.1624999999485004 0.06706202370134177 0
0.1497212456625933 0.05304662816990189 0
0.1355953297594331 0.03365207392672718 0
0.1223560660435203 0.03425269860895874 0
0.1098995739036183 0.04507710940912857 0
0.1073840819831248 0.0837912468894828 0
0.1086899833504254 0.02007062828683285 0
0.08520107244739031 0.03500212345829645 0
0.08946740553284731 0.06261153303174485 0
0.05544839931928003 0.04725134656377596 0
0.1497452327901662 0.03795936313835725 0
0.161140467362832 0.04545129565903414 0
0.1743433574239664 0.04094154534709599 0
0.02898375311136626 0.07115534599271679 0
0.1499999999452595 0.06524536730403606 0
0.1397868656111352 0.04570975014000152 0
0.02799864862840197 0.02942925436951421 0
0.2646577221686179 0.06707215275039158 0
0.2303194570634477 0.05231828743074837 0
0.2089418438492296 0.08157573393032916 0
0.1994146517052651 0.05626197034443038 0
0.1957462887239947 0.02611707201608794 0
0.1837473549675801 0.0860987432285596 0
0.186679334197535 0.072724119481626 0
0.1792176839545702 0.05795052552790433 0
0.2664954358540025 0.03387808805180131 0
0.1869175101970145 0.04218403996648463 0
0.1825122449490355 0.03059311417109013 0
0.1693495193574774 0.05214153926039874 0
0.1758492545251514 0.07025916717771802 0
0.1738474199437215 0.02891096867415336 0
0.1585422464553325 0.05658937081894253 0
POLYGONS 94 376
3 31 32 34
3 9 21 33
3 20 9 24
3 13 2 34
3 2 14 30
3 24 9 25
3 2 30 31
3 52 28 56
3 30 27 31
3 29 24 43
3 28 52 57
3 27 30 43
3 24 27 43
3 12 34 35
3 33 22 36
3 40 52 56
3 56 28 59
3 14 26 38
3 49 48 54
3 16 46 49
3 0 12 44
3 22 11 41
3 32 25 36
3 31 27 32
3 24 25 27
3 25 33 36
3 27 25 32
3 16 5 53
3 24 29 42
3 39 26 40
3 6 18 45
3 46 18 47
3 30 14 38
3 47 50 51
3 28 20 42
3 36 22 37
3 52 40 54
3 5 17 53
3 48 51 52
3 46 48 49
3 37 41 44
3 45 46 53
3 48 47 51
3 49 54 55
3 52 51 57
3 46 16 53
3 45 18 46
3 3 55 58
3 12 35 37
3 2 31 34
3 37 22 41
3 46 47 48
3 41 23 44
3 25 9 33
3 40 26 58
3 20 24 42
3 11 23 41
3 39 40 56
3 54 40 55
3 23 0 44
3 34 32 35
3 55 40 58
3 38 26 39
3 17 6 45
3 29 38 39
3 12 37 44
3 35 36 37
3 28 42 59
3 38 29 43
3 42 29 59
3 50 8 51
3 51 8 57
3 7 19 50
3 29 39 59
3 17 45 53
3 19 8 50
3 39 56 59
3 35 32 36
3 30 38 43
3 48 52 54
3 12 1 34
3 18 7 47
3 47 7 50
3 1 13 34
3 14 3 26
3 3 15 49
3 26 3 58
3 3 49 55
3 15 4 49
3 4 16 49
3 8 20 28
3 8 28 57
3 21 10 33
3 10 22 33
CELL_DATA 94
SCALARS mises double 1
LOOKUP_TABLE default
8770308.699935382 7161651.763600334 11671688.91114468 8397293.267159794 11657662.866128398 8705672.151983501 8743909.654834835 8121577.005474898 8592807.586512435 8725986.30947864 9091120.139457306 8610821.677662136 8007379.653615338 6258555.5431670565 5893269.611534053 8674594.808962166 8532347.584004294 9483581.821628986 8476572.410475593 6721720.606345077 6484268.898982948 6500178.020166849 7832056.741142945 7872421.580704696 8518625.16556029 8027512.239163621 8547780.6062884 8426473.331026373 9306906.122424953 8317776.720990661 8391133.703559525 6326112.515936954 9473813.111216756 6057963.986945795 9520950.227429133 7245084.186632544 8384759.196374236 6603442.41108058 8089618.268487383 7115670.119811319 6570437.870358925 6360527.058838626 7403069.91970116 7943713.642506346 8274337.967880963 6209691.014668629 6255403.482725564 8254004.003108748 7151090.458015248 7132669.883433199 6977437.3716993835 7380044.996260521 6085787.550965329 7272706.136422274 9303764.85776853 9449849.641485618 5939473.261455697 8582265.66950562 8599891.363475844 5942869.5221150415 7334086.856298459 7855082.425307178 8983754.185454808 6691108.552299851 8600724.660494458 6919138.824892356 7398024.382817848 9245422.222719915 8524575.887510069 8860333.254624091 8620915.637051428 7643778.940476418 1946077.0748376178 8708883.760062046 4180769.1887399484 7204344.825986329 8250144.223565369 8353992.072905282 9098205.337520158 7819604.084335728 4820155.459368088 5042079.637496594 5902127.7493324075 3530145.90200943 11857838.030142931 8648623.061977519 8521552.79781249 6990445.817652088 4420081.163928512 5191242.6799114 11830911.413254397 8489214.157768112 3610150.913557686 4801760.812213665
VECTORS principal_stress_1 float
8820401.036596797 593907.1615330294 0.0
7998360.193628897 -3333396.283608906 0.0
12019730.508823715 -841497.6007849836 0.0
8844541.548027877 2837611.0632450967 0.0
12068717.188487673 974353.0054759724 0.0
9181903.206496317 -1393595.9383474535 0.0
9236723.522114048 1332512.1802062744 0.0
8637687.892567871 47088.05624803827 0.0
9040948.464467132 -2270.8813525830533 0.0
9369669.177202653 -185292.37679007527 0.0
9434451.222621802 610729.7228583329 0.0
9203837.14564842 387062.76175445126 0.0
8582813.584760847 -263945.54024330206 0.0
6079347.917401004 128693.40277300672 0.0
5726536.74043178 -255310.4644861511 0.0
9030272.839603426 -191510.14701553417 0.0
9158229.447407657 328318.67072340875 0.0
9736878.531068936 -253857.26247373165 0.0
8476485.904625487 -347128.0758958633 0.0
6747215.091184499 -375445.7332442956 0.0
6729356.2280650865 473015.97968015785 0.0
6733106.552698183 -465080.2157560514 0.0
7784285.368045017 -20849.020609453906 0.0
8130869.803545399 464765.35204229585 0.0
8936200.656964982 6806.835867826574 0.0
8063688.062549624 -959700.5241242639 0.0
8685222.783193745 -364423.87695187127 0.0
8179577.274895672 -638992.6174155779 0.0
9793208.228743602 -212039.28567958076 0.0
8913518.216750864 -201763.92235027102 0.0
8158179.2129893685 614196.558930953 0.0
6321727.93819645 417204.00148848526 0.0
9732119.721197203 227206.7330362504 0.0
6378749.666032015 1731368.3050028968 0.0
9744369.852410085 260582.87799462414 0.0
7051338.052436564 -43176.211186027416 0.0
8655843.736248627 29075.441627421656 0.0
6249833.780294107 -1287113.8981782903 0.0
8132986.958418598 761921.288033427 0.0
6991563.730789077 -414081.2856102 0.0
6855976.059733577 52661.29597444618 0.0
6635932.462393323 30972.579433397423 0.0
7349301.386960872 513318.89245883486 0.0
7974059.392861019 -345427.61416054826 0.0
8504519.281256022 418493.4454171113 0.0
6186362.873928831 -356066.98680645827 0.0
6248006.559864397 389357.1609056419 0.0
8754948.511656692 -1639440.4108819165 0.0
6959643.469027509 22647.586038510093 0.0
7407234.563126723 958557.9159973722 0.0
6798204.258168056 -238514.82232641548 0.0
7317279.801999495 531084.2608696963 0.0
6325319.985000003 -11236.568721775 0.0
7444451.583565408 -806314.9500031197 0.0
9734844.840633653 -605540.7108653244 0.0
9665599.118512582 -245573.9232048691 0.0
6484617.933376739 -297750.9702899627 0.0
9016855.379106762 -5369.4571955904485 0.0
8753193.887365576 -562128.9800803254 0.0
6487750.353799079 276433.35313061485 0.0
7233803.392998358 778367.9567845828 0.0
8146854.542520633 -582177.5290167182 0.0
9619208.51349824 -480099.1906378621 0.0
6337766.546693428 1298301.520303324 0.0
9135684.343580065 -115400.09138943355 0.0
6754258.641859516 232569.16712387817 0.0
6959533.734675446 33426.492862790714 0.0
9847854.868623294 482102.9111769132 0.0
9052315.6523445 69173.86463753502 0.0
9295297.590821633 119889.25553650268 0.0
8963267.03259236 1569427.0503614824 0.0
8148865.437969116 1463037.479651234 0.0
978571.4804162278 -52383.234290309156 0.0
9355068.330298852 81897.26600274224 0.0
4235609.639866027 -27779.161824012463 0.0
7934624.071082248 3296779.4443816687 0.0
8843436.448528841 -28694.82966521951 0.0
8044096.84156549 -39389.06242829578 0.0
9693436.82836305 449864.7726757046 0.0
7929354.164567117 -295384.72667429846 0.0
5139049.202211455 1190158.653739224 0.0
5359987.9567632675 1035080.6095021717 0.0
6244304.053370673 1545532.3208635699 0.0
3487417.339352692 477889.54960793763 0.0
12220806.292871336 -895291.0468179446 0.0
8859478.084599877 -2250639.456325635 0.0
9039407.915738516 -1589721.0583229526 0.0
7362871.668986171 -1335025.595178637 0.0
4459912.327258151 -696186.8318029441 0.0
5514571.903403045 -1213759.3450483126 0.0
12215376.438607639 955556.9099774275 0.0
9082868.34031396 1589131.04000113 0.0
3433704.9182714648 -238646.96200839392 0.0
5150464.902503615 -1195780.0829243308 0.0
VECTORS principal_stress_2 float
-593907.1615330299 8820401.036596797 0.0
3333396.2836089064 7998360.193628897 0.0
841497.6007849834 12019730.508823715 0.0
-2837611.0632450953 8844541.548027877 0.0
-974353.0054759724 12068717.188487673 0.0
1393595.9383474546 9181903.206496317 0.0
-1332512.180206273 9236723.522114048 0.0
-47088.05624803851 8637687.892567871 0.0
2270.881352582898 9040948.464467132 0.0
185292.37679007612 9369669.177202653 0.0
-610729.7228583317 9434451.222621802 0.0
-387062.7617544508 9203837.14564842 0.0
263945.54024330224 8582813.584760847 0.0
-128693.40277300647 6079347.917401004 0.0
255310.46448615094 5726536.74043178 0.0
191510.14701553495 9030272.839603426 0.0
-328318.67072340904 9158229.447407657 0.0
253857.2624737319 9736878.531068936 0.0
347128.07589586376 8476485.904625487 0.0
375445.7332442964 6747215.091184499 0.0
-473015.97968015715 6729356.2280650865 0.0
465080.2157560513 6733106.552698183 0.0
20849.020609454506 7784285.368045017 0.0
-464765.3520422949 8130869.803545399 0.0
-6806.835867825725 8936200.656964982 0.0
959700.5241242644 8063688.062549624 0.0
364423.876951872 8685222.783193745 0.0
638992.6174155788 8179577.274895672 0.0
212039.28567958123 9793208.228743602 0.0
201763.9223502721 8913518.216750864 0.0
-614196.5589309523 8158179.2129893685 0.0
-417204.0014884842 6321727.93819645 0.0
-227206.73303624903 9732119.721197203 0.0
-1731368.3050028968 6378749.666032015 0.0
-260582.87799462397 9744369.852410085 0.0
43176.211186027875 7051338.052436564 0.0
-29075.441627420507 8655843.736248627 0.0
1287113.8981782915 6249833.780294107 0.0
-761921.2880334267 8132986.958418598 0.0
414081.2856102011 6991563.730789077 0.0
-52661.29597444598 6855976.059733577 0.0
-30972.579433396328 6635932.462393323 0.0
-513318.89245883405 7349301.386960872 0.0
345427.61416054965 7974059.392861019 0.0
-418493.4454171099 8504519.281256022 0.0
356066.98680645926 6186362.873928831 0.0
-389357.16090564145 6248006.559864397 0.0
1639440.4108819172 8754948.511656692 0.0
-22647.58603850939 6959643.469027509 0.0
-958557.9159973719 7407234.563126723 0.0
238514.82232641563 6798204.258168056 0.0
-531084.2608696951 7317279.801999495 0.0
11236.568721774724 6325319.985000003 0.0
806314.9500031202 7444451.583565408 0.0
605540.7108653241 9734844.840633653 0.0
245573.92320487055 9665599.118512582 0.0
297750.97028996353 6484617.933376739 0.0
5369.45719559029 9016855.379106762 0.0
562128.9800803262 8753193.887365576 0.0
-276433.35313061427 6487750.353799079 0.0
-778367.956784583 7233803.392998358 0.0
582177.5290167193 8146854.542520633 0.0
480099.1906378626 9619208.51349824 0.0
-1298301.5203033234 6337766.546693428 0.0
115400.09138943428 9135684.343580065 0.0
-232569.16712387797 6754258.641859516 0.0
-33426.49286279013 6959533.734675446 0.0
-482102.91117691173 9847854.868623294 0.0
-69173.86463753399 9052315.6523445 0.0
-119889.25553650249 9295297.590821633 0.0
-1569427.0503614824 8963267.03259236 0.0
-1463037.4796512346 8148865.437969116 0.0
52383.23429030927 978571.4804162278 0.0
-81897.26600274077 9355068.330298852 0.0
27779.161824012564 4235609.639866027 0.0
-3296779.4443816673 7934624.071082248 0.0
28694.829665220994 8843436.448528841 0.0
39389.06242829641 8044096.84156549 0.0
-449864.7726757036 9693436.82836305 0.0
295384.7266742997 7929354.164567117 0.0
-1190158.6537392242 5139049.202211455 0.0
-1035080.6095021714 5359987.9567632675 0.0
-1545532.3208635696 6244304.053370673 0.0
-477889.54960793775 3487417.339352692 0.0
895291.046817946 12220806.292871336 0.0
2250639.4563256362 8859478.084599877 0.0
1589721.0583229535 9039407.915738516 0.0
1335025.5951786377 7362871.668986171 0.0
696186.8318029441 4459912.327258151 0.0
1213759.345048313 5514571.903403045 0.0
-955556.9099774262 12215376.438607639 0.0
-1589131.0400011286 9082868.34031396 0.0
238646.9620083942 3433704.9182714648 0.0
1195780.0829243315 5150464.902503615 0.0
POINT_DATA 60
VECTORS displacements float
0.0 0.0 0.0
3.4701105424847914e-05 2.6005949056178815e-06 0.0
3.909472173340584e-05 1.5299660876308753e-06 0.0
6.785359540849124e-05 1.3632936138687989e-06 0.0
7.132901956413945e-05 2.5038627276885762e-06 0.0
0.00011208582481284722 3.6761424573224523e-06 0.0
0.00011301716100610521 -6.829920822997719e-06 0.0
7.273735507045431e-05 -2.971968141075875e-06 0.0
6.809280267435019e-05 -1.706184405270521e-06 0.0
3.9374411749088654e-05 -1.6551991076669551e-06 0.0
3.472694995373738e-05 -2.6463701249872345e-06 0.0
0.0 0.0 0.0
1.9883388944191523e-05 4.293220342770345e-06 0.0
3.5538655778792974e-05 2.262001385710299e-06 0.0
5.336815376983799e-05 1.7141269807930243e-06 0.0
7.056886307446778e-05 2.1367952497489326e-06 0.0
8.727694813470041e-05 2.0601155264978044e-06 0.0
0.00010211688431779265 -1.5549188433579345e-06 0.0
8.828368322680182e-05 -3.9829754345969866e-06 0.0
7.227787354824042e-05 -2.3850978601292497e-06 0.0
5.3627890109739117e-05 -2.021632937484509e-06 0.0
3.540077952995332e-05 -2.2318788871394025e-06 0.0
1.991171920955286e-05 -4.3553146383498386e-06 0.0
0.0 0.0 0.0
4.785540811951915e-05 -4.288503582735999e-07 0.0
3.937474263770591e-05 -1.0538826107829708e-06 0.0
5.9252667072548385e-05 1.80305225484911e-07 0.0
4.4546452644952e-05 -7.168051232621233e-08 0.0
5.937745599903182e-05 -5.372766504003273e-07 0.0
5.3372907297744106e-05 -1.9249614771474806e-07 0.0
4.680581707288756e-05 2.933099680417672e-07 0.0
4.120256107153883e-05 8.573428999067217e-07 0.0
3.704172310616583e-05 3.918395473262465e-07 0.0
3.307647826500159e-05 -2.7279707884553263e-06 0.0
3.3984190155969304e-05 2.475437473786626e-06 0.0
2.7376914721954323e-05 1.51136609441726e-06 0.0
2.8977849917321076e-05 -1.4152478826323258e-06 0.0
1.7252379165045227e-05 2.373956987237077e-07 0.0
5.3377953877629696e-05 2.6674034328504426e-07 0.0
5.825443980256654e-05 -9.730505894314429e-08 0.0
6.38955662410645e-05 1.9202937997725672e-07 0.0
8.669036123601419e-06 -7.977856150800011e-07 0.0
5.357273954491473e-05 -7.271969220221814e-07 0.0
4.915947374177898e-05 -3.4856594554982726e-08 0.0
8.379179935145242e-06 7.15347387817562e-07 0.0
9.504899860675294e-05 -1.8599666093790111e-06 0.0
8.412041498866019e-05 -1.0568534927360622e-06 0.0
7.884688509181654e-05 -3.0309998291611522e-06 0.0
7.353449781348911e-05 -9.186597453719744e-07 0.0
7.334987976378646e-05 1.5450984789058562e-06 0.0
7.248839891174569e-05 -2.597692797345049e-06 0.0
7.029135041040591e-05 -1.9861249446404897e-06 0.0
6.58507642980721e-05 -7.278458291112673e-07 0.0
9.524446064479845e-05 -7.01957443681295e-07 0.0
6.905576136281849e-05 1.9648359199401857e-07 0.0
6.803162081475487e-05 9.821486237736708e-07 0.0
6.16819338648344e-05 -3.079026842565601e-07 0.0
6.567812289048887e-05 -1.2892110267269676e-06 0.0
6.485438431618502e-05 7.806896466108664e-07 0.0
5.7257154503151366e-05 -2.9489302388620295e-07 0.0