# vtk DataFile Version 2.0
Really cool data
ASCII
DATASET POLYDATA
POINTS 55 float
0.0 0.0 0
0.125 0.0 0
0.125 0.002866666666666667 0
0.175 0.002866666666666667 0
0.175 0.0 0
0.3 0.0 0
0.3 0.1 0
0.175 0.1 0
0.175 0.09713333333333334 0
0.125 0.09713333333333334 0
0.125 0.1 0
0.0 0.1 0
0.06250000013078053 0.0 0
0.125 0.001433333335999408 0
0.1500000000542101 0.002866666666666666 0
0.175 0.001433333329202337 0
0.2375000000379471 0.0 0
0.3 0.05000000007786663 0
0.2374999999024218 0.09999999999999999 0
0.175 0.09856666664227211 0
0.1499999998970008 0.09713333333333334 0
0.125 0.09856666661245655 0
0.06249999984482352 0.1 0
0.0 0.05000000007786663 0
0.1374999999485004 0.08089535707927506 0
0.162500000027105 0.01910464295241439 0
0.1375000000271051 0.01910464297588805 0
0.1500000000395525 0.03236148688524998 0
0.1624999999485004 0.0808953570346751 0
0.1476815355637006 0.0653941478501408 0
0.1500000000369932 0.01835935987005477 0
0.1340209702856042 0.03324981697184288 0
0.1149573382983273 0.0811911378834137 0
0.1672126626619116 0.03454622340263084 0
0.1108263625367037 0.02406241234904955 0
0.1186148956591756 0.04560330114358915 0
0.1785611001753353 0.02519593835398307 0
0.1843898336267418 0.04317343623748988 0
0.1289498137094039 0.06429019182474148 0
0.1400412202286953 0.04899129017722168 0
0.1620116092420286 0.05103563959738303 0
0.1783831438279337 0.06021557246340654 0
0.2030297870307234 0.05839443198476266 0
0.1029608259865336 0.067526723239896 0
0.08377465532378732 0.04911627115996502 0
0.195653501861768 0.02168083320609159 0
0.2367472940233964 0.04238285907662814 0
0.04524584778470714 0.0575051902272554 0
0.1641466629766195 0.06684072147270223 0
0.1843808457270585 0.07877852298504605 0
0.2687865777464237 0.03045782715941898 0
0.1499999999453414 0.07912462990484168 0
0.2665734446727326 0.06854285157570386 0
0.02706669653992507 0.02634021256560988 0
0.168580529967446 0.08833802465298138 0
POLYGONS 84 336
3 38 35 39
3 20 9 24
3 39 27 40
3 2 26 34
3 43 22 44
3 29 38 39
3 27 33 40
3 25 3 36
3 40 37 41
3 28 48 49
3 40 41 48
3 11 23 47
3 24 9 32
3 20 28 54
3 22 11 47
3 33 37 40
3 29 24 38
3 12 44 47
3 26 27 31
3 18 42 46
3 29 39 40
3 16 5 50
3 27 26 30
3 27 25 33
3 44 22 47
3 0 12 53
3 48 28 51
3 25 27 30
3 48 41 49
3 31 27 39
3 26 14 30
3 6 18 52
3 29 48 51
3 24 29 51
3 49 8 54
3 12 47 53
3 28 20 51
3 14 25 30
3 24 32 38
3 28 49 54
3 18 46 52
3 35 38 43
3 20 24 51
3 29 40 48
3 17 6 52
3 5 17 50
3 33 25 36
3 26 31 34
3 23 0 53
3 42 45 46
3 33 36 37
3 38 32 43
3 46 50 52
3 45 16 46
3 34 31 35
3 50 17 52
3 41 37 42
3 47 23 53
3 42 37 45
3 35 43 44
3 46 16 50
3 37 36 45
3 8 20 54
3 1 13 12
3 12 13 2
3 12 2 34
3 2 14 26
3 14 3 25
3 3 15 45
3 36 3 45
3 15 4 45
3 4 16 45
3 19 18 7
3 8 18 19
3 18 8 49
3 9 21 22
3 9 22 32
3 21 10 22
3 12 34 44
3 42 18 49
3 32 22 43
3 35 31 39
3 34 35 44
3 41 42 49
CELL_DATA 84
SCALARS mises double 1
LOOKUP_TABLE default
6843547.674534213 7522343.998676376 6792736.40248348 6969912.52093974 6751686.8667696435 6823998.103568871 6841643.90168013 7082709.859942899 6816587.536154606 6912867.27981099 6766498.25900291 6020492.063531058 6931206.931093888 7329335.817136574 6560416.848037562 6809194.700129486 6828422.253034493 6826120.078999042 6853003.163747372 6447723.36905863 6795385.438576959 8573468.410937976 7057412.720553786 6853842.187219206 6922521.99813976 6429793.722051005 7036319.94625662 7053317.5471132165 6873856.186626781 6846473.810451702 7069403.528768588 8560829.220208645 6862824.563571657 7035948.343100759 7199004.861671099 6685421.127195985 7093128.944809724 7066517.809732466 6923055.667281124 6953594.132404472 5966571.00410161 6878609.79552593 7057277.304174601 6841503.240513152 6792646.5154942805 6971523.058796366 6856347.022561398 6829376.705004957 5945614.278080169 6342349.516841758 6874208.262550326 6855847.116982827 6120519.357243806 6446082.249572529 6916579.345420722 3789862.9599158145 6691527.124692057 6126018.797218472 6732157.637741889 6925038.392393192 6055681.394050623 6820765.392235379 7555866.338555157 6366696.072302767 6344648.265881472 6379038.835678941 7524029.160761842 7492132.393387485 7198639.151393245 6771908.324147786 6370287.7864075815 6539656.476979624 6584128.40158675 6561327.626508801 6555282.343183982 6326533.22250016 6355258.294810009 6348518.217766977 6697050.942290429 6624869.184312225 6548696.723973241 6816126.514878505 6932526.77331264 6752613.229071718
VECTORS principal_stress_1 float
6882532.2118184045 -21221.084591828578 0.0
7553910.127020971 -123224.67315204824 0.0
6881814.773597975 6639.12182919216 0.0
6980033.082106701 238166.5556045121 0.0
6685235.69205363 52341.75614618269 0.0
6898686.880823619 20174.586745330183 0.0
6927027.130833455 4911.103318897397 0.0
7087074.410477378 -182433.65936291084 0.0
6882587.242050923 -14716.740354888021 0.0
6975284.274906805 34356.743552935164 0.0
6853758.792889947 1935.9490489135655 0.0
6569704.617541934 -133057.3516149664 0.0
6950498.372769371 -268046.177250842 0.0
7384234.8565183 26481.59631756948 0.0
6741771.364662895 -353064.5857751127 0.0
6886197.495427194 -12601.71153219256 0.0
6913433.119088252 -55329.27299343364 0.0
6789408.269761715 -78302.61564553384 0.0
6934447.169068412 73580.57412340636 0.0
6645967.203767278 138871.79550264735 0.0
6884799.626457049 -6452.086495849292 0.0
8303458.85909444 -634996.245651731 0.0
7116914.880935834 32990.0686724229 0.0
6940402.85003249 -38278.61792197305 0.0
6885731.474931339 101949.13670978663 0.0
6720364.164265784 343472.8403841118 0.0
7116932.671149478 72811.783185179 0.0
7112305.375264797 -5676.777917236257 0.0
6929471.604866721 66567.6173999673 0.0
6920123.678119064 -10236.018663329374 0.0
7107523.259383248 27203.268657099954 0.0
8333424.743010616 557624.1091065456 0.0
6928966.038915964 -13312.540456710092 0.0
7120299.648315206 -24800.593623063887 0.0
7181098.308075178 243166.96633670252 0.0
6771884.633704565 258179.69326235997 0.0
7139998.437673715 -34118.32526602825 0.0
7104277.344315867 -9126.958876046434 0.0
6965571.944351787 10138.409611586401 0.0
6990244.306515578 139324.82603104526 0.0
6117395.457371143 246052.23761045112 0.0
6874773.52273432 40773.83378989437 0.0
7100267.816149004 -38444.81107915241 0.0
6934191.932179909 12747.527756860645 0.0
6427227.4103642125 1272282.8890725519 0.0
6570165.840520794 -1253329.682542642 0.0
6933020.500402024 -11384.81335107632 0.0
6886439.374875282 190.26381124364525 0.0
6489319.792180501 214021.26240877467 0.0
6420694.352426568 -64998.64723771263 0.0
6917880.591520485 -34679.31262098858 0.0
6829101.118910599 -83593.69623063612 0.0
6451333.724140307 -18200.83879966847 0.0
6646117.58917741 -264292.3142063204 0.0
6898939.375341642 -19260.568676956926 0.0
3892995.3410678715 -88079.87964553208 0.0
6764422.053959023 12905.35076976328 0.0
6422369.05322673 -34164.3196963418 0.0
6835490.000568432 -34918.36211514447 0.0
6867093.867543226 -16141.757457163627 0.0
6216409.1481282255 -263119.29853655817 0.0
6885705.992360311 -93475.05823785719 0.0
7549122.33475746 160217.33454018115 0.0
6370044.523422794 146086.35498113252 0.0
6371370.688092626 438167.1419145138 0.0
6388180.440358533 148939.44154382753 0.0
7545414.519618364 103574.92717149423 0.0
7510728.990028916 -76806.02438315646 0.0
7079563.83240628 -322964.8722662107 0.0
6771850.28767134 -284969.83815435047 0.0
6330111.191134661 -131229.0145933702 0.0
6609313.812628221 -298645.2842641829 0.0
6587591.208669253 151075.42785924516 0.0
6588962.663747243 453131.2166492491 0.0
6609297.721927378 326358.5311329865 0.0
6353179.555520454 -436916.11818648875 0.0
6367679.074527715 -186625.39291382063 0.0
6351857.177531703 -145669.2630857289 0.0
6643469.2941316655 -49968.04796119733 0.0
6724385.009117335 211664.63170915277 0.0
6522316.50324453 -1992.114885734578 0.0
6879656.694180368 9870.87492739931 0.0
6886015.655273309 43187.55790709122 0.0
6767425.183297126 154192.5245811791 0.0
VECTORS principal_stress_2 float
21221.08459182828 6882532.2118184045 0.0
123224.67315204821 7553910.127020971 0.0
-6639.121829191236 6881814.773597975 0.0
-238166.55560451225 6980033.082106701 0.0
-52341.75614618166 6685235.69205363 0.0
-20174.586745330304 6898686.880823619 0.0
-4911.10331889684 6927027.130833455 0.0
182433.6593629107 7087074.410477378 0.0
14716.740354887977 6882587.242050923 0.0
-34356.74355293477 6975284.274906805 0.0
-1935.9490489137843 6853758.792889947 0.0
133057.35161496725 6569704.617541934 0.0
268046.17725084163 6950498.372769371 0.0
-26481.59631756973 7384234.8565183 0.0
353064.58577511366 6741771.364662895 0.0
12601.711532193089 6886197.495427194 0.0
55329.27299343394 6913433.119088252 0.0
78302.61564553494 6789408.269761715 0.0
-73580.57412340635 6934447.169068412 0.0
-138871.7955026469 6645967.203767278 0.0
6452.08649584974 6884799.626457049 0.0
634996.2456517313 8303458.85909444 0.0
-32990.068672422625 7116914.880935834 0.0
38278.61792197327 6940402.85003249 0.0
-101949.13670978563 6885731.474931339 0.0
-343472.8403841109 6720364.164265785 0.0
-72811.78318517825 7116932.671149478 0.0
5676.777917236281 7112305.375264797 0.0
-66567.61739996662 6929471.604866721 0.0
10236.018663329853 6920123.678119064 0.0
-27203.26865709945 7107523.259383248 0.0
-557624.1091065449 8333424.743010616 0.0
13312.540456709807 6928966.038915964 0.0
24800.593623064717 7120299.648315206 0.0
-243166.96633670127 7181098.308075178 0.0
-258179.69326236012 6771884.633704565 0.0
34118.32526602931 7139998.437673715 0.0
9126.958876046818 7104277.344315867 0.0
-10138.409611585304 6965571.944351787 0.0
-139324.82603104494 6990244.306515578 0.0
-246052.2376104504 6117395.457371143 0.0
-40773.83378989409 6874773.52273432 0.0
38444.81107915331 7100267.816149004 0.0
-12747.52775685995 6934191.932179909 0.0
-1272282.8890725519 6427227.4103642125 0.0
1253329.6825426426 6570165.840520794 0.0
11384.813351077382 6933020.500402024 0.0
-190.2638112433762 6886439.374875282 0.0
-214021.2624087744 6489319.792180501 0.0
64998.647237712714 6420694.352426568 0.0
34679.312620988756 6917880.591520485 0.0
83593.696230637 6829101.118910599 0.0
18200.838799668887 6451333.724140307 0.0
264292.3142063212 6646117.58917741 0.0
19260.568676956696 6898939.375341642 0.0
88079.87964553198 3892995.3410678715 0.0
-12905.35076976321 6764422.053959023 0.0
34164.31969634259 6422369.05322673 0.0
34918.36211514512 6835490.000568432 0.0
16141.75745716472 6867093.867543226 0.0
263119.29853655887 6216409.1481282255 0.0
93475.05823785832 6885705.992360311 0.0
-160217.33454018075 7549122.33475746 0.0
-146086.35498113206 6370044.523422794 0.0
-438167.14191451384 6371370.688092626 0.0
-148939.4415438274 6388180.440358533 0.0
-103574.92717149385 7545414.519618364 0.0
76806.0243831567 7510728.990028916 0.0
322964.8722662111 7079563.83240628 0.0
284969.83815435105 6771850.28767134 0.0
131229.01459336994 6330111.191134661 0.0
298645.2842641829 6609313.812628221 0.0
-151075.42785924426 6587591.208669253 0.0
-453131.21664924896 6588962.663747243 0.0
-326358.53113298654 6609297.721927378 0.0
436916.11818648904 6353179.555520454 0.0
186625.39291382048 6367679.074527715 0.0
145669.26308572871 6351857.177531703 0.0
49968.047961198055 6643469.2941316655 0.0
-211664.63170915184 6724385.009117335 0.0
1992.1148857346138 6522316.50324453 0.0
-9870.874927399513 6879656.694180368 0.0
-43187.557907091155 6886015.655273309 0.0
-154192.52458117934 6767425.183297126 0.0
POINT_DATA 55
VECTORS displacements float
0.0 0.0 0.0
3.8938723337992665e-05 3.0536068067904636e-06 0.0
3.905013253047232e-05 2.8800790946553963e-06 0.0
5.7126375662581115e-05 2.7277755865080712e-06 0.0
5.719515287690707e-05 2.935194712170615e-06 0.0
0.00010216610437638489 4.911284968478734e-06 0.0
0.0001024492295798013 -5.942752569817881e-06 0.0
5.739804994508892e-05 -3.4508088629769316e-06 0.0
5.733711478570415e-05 -3.2713549161921355e-06 0.0
3.919840829157628e-05 -3.219760832471e-06 0.0
3.909493718446963e-05 -3.392793099335569e-06 0.0
0.0 0.0 0.0
1.9805008873634176e-05 3.377342807852104e-06 0.0
3.897030176838486e-05 2.966068409571942e-06 0.0
4.810831048303069e-05 2.665698588387946e-06 0.0
5.718803728749137e-05 2.842297446079333e-06 0.0
7.695829087801154e-05 1.795399618001464e-06 0.0
9.136928149261013e-05 -6.098582848780074e-07 0.0
7.718520979879603e-05 -2.602196305122686e-06 0.0
5.7392532475987336e-05 -3.3602808953135467e-06 0.0
4.826164716299977e-05 -3.0905745357001174e-06 0.0
3.912261545763395e-05 -3.3055046330569152e-06 0.0
2.0015851997601106e-05 -3.549471146574555e-06 0.0
0.0 0.0 0.0
4.4042962076655026e-05 -2.0239330129046055e-06 0.0
5.24338108915675e-05 1.5526475212975185e-06 0.0
4.391147504053677e-05 1.627326182312426e-06 0.0
4.823408815696346e-05 7.869542432117292e-07 0.0
5.257893890738112e-05 -2.0690126124510446e-06 0.0
4.753154327940834e-05 -1.1059282836655884e-06 0.0
4.8170571173861356e-05 1.6640872541224575e-06 0.0
4.29442959415885e-05 8.136921176345913e-07 0.0
3.650958164751004e-05 -2.284195553202862e-06 0.0
5.39399770412266e-05 6.505834123474608e-07 0.0
3.517341007246258e-05 1.6669313079943864e-06 0.0
3.792318421617225e-05 1.249074256836495e-07 0.0
5.774045846076692e-05 1.2315284400209675e-06 0.0
5.960534533582688e-05 1.1105001727823827e-07 0.0
4.134553878200149e-05 -1.0719485849382068e-06 0.0
4.499863333998005e-05 -1.5034832306807e-07 0.0
5.223444045298792e-05 -3.0694097030354987e-07 0.0
5.76364985000257e-05 -8.931558969642291e-07 0.0
6.561931546890622e-05 -7.171343319054286e-07 0.0
3.275488327082903e-05 -1.4015332478342561e-06 0.0
2.6385133704485613e-05 -3.3258073943447504e-08 0.0
6.338801538037149e-05 1.3156801981210771e-06 0.0
7.599035230335906e-05 -6.625697634753512e-08 0.0
1.371762654699469e-05 -5.558788912323325e-07 0.0
5.299548863552538e-05 -1.2210398837831474e-06 0.0
5.986987482412943e-05 -2.062806146632684e-06 0.0
8.56678878860921e-05 1.006851523081775e-07 0.0
4.8303609311468144e-05 -1.936061854594092e-06 0.0
8.511176047984276e-05 -9.209136048406301e-07 0.0
8.104015008347735e-06 5.351316320836365e-07 0.0
5.478013071825027e-05 -2.579510979210372e-06 0.0