# vtk DataFile Version 2.0
Really cool data
ASCII
DATASET POLYDATA
POINTS 56 float
0.0 0.0 0
0.125 0.0 0
0.125 0.01393333333333333 0
0.175 0.01393333333333333 0
0.175 0.0 0
0.3 0.0 0
0.3 0.1 0
0.175 0.1 0
0.175 0.08606666666666667 0
0.125 0.08606666666666667 0
0.125 0.1 0
0.0 0.1 0
0.06250000013078053 0.0 0
0.125 0.006966666680301918 0
0.1500000000542101 0.01393333333333333 0
0.175 0.00696666664684975 0
0.2375000000379471 0.0 0
0.3 0.05000000007786663 0
0.2374999999024218 0.09999999999999999 0
0.175 0.09303333330893879 0
0.1499999998970008 0.08606666666666667 0
0.125 0.09303333331435981 0
0.06249999984482352 0.1 0
0.0 0.05000000007786663 0
0.1369960248830095 0.06964781184651968 0
0.1229266017014787 0.06935108347373296 0
0.1631982078953259 0.02997376938440701 0
0.1304276322339623 0.05607724260581144 0
0.1442072995295108 0.05571751239712659 0
0.1347778509566788 0.03088344109506196 0
0.1189286799575542 0.0286764329176636 0
0.1642272699838062 0.07085478538172063 0
0.1092364783246316 0.08122999132548014 0
0.1094263625833685 0.01456108696061902 0
0.09612299899219658 0.03677191217371506 0
0.05186969518525812 0.04821496669140322 0
0.08086764500842784 0.06553814972975516 0
0.1500000000359814 0.03962483455510704 0
0.1645003662235066 0.04470428865238803 0
0.1773948368294756 0.0362267179477758 0
0.1948439797921427 0.01935783103930951 0
0.1980097364325652 0.04645318862278212 0
0.1113546574388724 0.05759970438328654 0
0.1578682255127522 0.05579580805648113 0
0.1760824058935835 0.05662931706074962 0
0.1920022767364343 0.07717740216638275 0
0.176827988153456 0.07268204281887991 0
0.2281103216902025 0.06203788140034469 0
0.2603981601682113 0.03639297152900908 0
0.1369573054120679 0.0449290793795038 0
0.1507216089843529 0.06645720701734109 0
0.02721551210138754 0.07122558069589663 0
0.2652016963521671 0.0696861706014441 0
0.2262447305427317 0.03131994765690981 0
0.02674390318117157 0.0295347497604129 0
0.1214281874985553 0.0424896354258404 0
POLYGONS 86 344
3 26 3 39
3 1 13 33
3 20 9 24
3 2 14 29
3 9 21 32
3 8 31 46
3 24 9 25
3 14 26 37
3 32 36 42
3 35 34 36
3 25 32 42
3 13 2 33
3 12 33 34
3 32 22 36
3 37 38 43
3 12 34 35
3 29 14 37
3 2 29 30
3 45 8 46
3 28 37 43
3 22 11 51
3 0 12 54
3 18 45 47
3 37 26 38
3 16 5 48
3 36 34 42
3 24 25 27
3 5 17 48
3 6 18 52
3 40 16 53
3 24 27 28
3 22 35 36
3 38 39 44
3 31 20 50
3 39 41 44
3 39 3 40
3 35 51 54
3 44 45 46
3 34 30 55
3 20 24 50
3 35 22 51
3 42 34 55
3 38 26 39
3 51 23 54
3 27 25 42
3 25 9 32
3 28 27 49
3 44 41 45
3 47 48 52
3 31 43 44
3 23 0 54
3 11 23 51
3 41 40 53
3 12 35 54
3 31 44 46
3 24 28 50
3 17 6 52
3 2 30 33
3 30 29 55
3 27 42 55
3 29 49 55
3 43 38 44
3 18 47 52
3 37 28 49
3 29 37 49
3 43 31 50
3 39 40 41
3 48 47 53
3 45 41 47
3 48 17 52
3 49 27 55
3 33 30 34
3 28 43 50
3 47 41 53
3 16 48 53
3 12 1 33
3 14 3 26
3 3 15 40
3 15 4 40
3 4 16 40
3 18 7 45
3 7 19 45
3 19 8 45
3 8 20 31
3 21 10 32
3 10 22 32
CELL_DATA 86
SCALARS mises double 1
LOOKUP_TABLE default
8643133.768991577 3662622.500407696 10839178.323017046 10772952.975893313 8432672.524300257 8187869.093238952 8338873.863507744 8960437.853771906 7222062.46446898 7282654.342710959 8301775.553701558 7335766.881052493 5889688.438595758 6333119.298403117 7888709.528770944 7191016.028774389 8828240.158899514 8077966.511397519 7080092.791934213 8002889.272216743 6479785.155546509 6475885.3413443705 6569139.854875565 8152141.555908988 8192264.4157544505 7844878.951985753 8263079.125441685 6355742.515375195 8472660.95920365 6339180.518056292 7843809.091200909 7027303.886588409 8062087.654064874 8941772.235151406 7276537.309219725 6838887.755261074 6473879.558476326 7786180.604110592 7553424.031854883 8892325.193463873 6857524.327538471 7957405.882111289 7596922.094510469 6052667.790184321 7792598.483587396 6891940.583074677 7880018.535374133 8078751.348819758 6268983.158059044 7796851.607210502 5921258.51185906 5940721.644269402 6607625.08900065 6870841.965308863 8580873.738671204 8667148.38055851 6941648.170475973 6959688.52888426 8399961.293249335 7899433.156620868 7794045.459762443 7846859.466496407 6332492.477357729 7985277.847197412 8324689.591207703 8637684.426029777 8060739.438667666 6262746.413326952 6818061.995226562 4388390.531317945 7967370.813902128 7869406.710896237 8068353.70751258 7272926.071219601 6383596.189115797 5136546.375160298 10819301.870620448 8297482.024062676 4562938.291264169 5476645.9652740555 5479149.435300212 4383684.026439032 8584065.461868925 10997321.239239348 3951861.9541712576 5115323.24673455
VECTORS principal_stress_1 float
9043349.080500599 -1040774.0463567318 0.0
3533073.370187772 163087.69597566655 0.0
11133042.805552142 -727298.9370372689 0.0
11083001.469408037 815408.9794852092 0.0
8610729.735719845 -2348469.4008938493 0.0
8583130.540530141 1293890.371769534 0.0
8744167.365905471 -1160055.204433949 0.0
9222549.20414279 -218040.75170280243 0.0
7127151.912868921 -691401.7497389917 0.0
6959750.741110998 -11701.133870029178 0.0
8332627.620314731 -462341.76741210686 0.0
7879174.170757683 2910078.9946230715 0.0
5780886.757409436 318124.2167376175 0.0
6168687.694379592 -59133.996251602155 0.0
8378600.568445562 -271.6897793738998 0.0
7012688.101353866 14219.777832776137 0.0
9076568.888418693 198682.38415847032 0.0
8417338.240001734 1106079.1500639413 0.0
7400245.088334831 1302150.2418982808 0.0
8497628.837911885 -14086.531341660819 0.0
6746844.742145891 -444982.29018405586 0.0
6735521.0752388 464604.5836855105 0.0
6631522.3351664925 342838.59449727455 0.0
8695360.792351801 -405219.717517375 0.0
8033400.705813355 -540448.7946692794 0.0
7592899.875979637 112592.06842702963 0.0
8647712.108196203 -55816.95390648522 0.0
6080658.013880825 -1298208.093408737 0.0
8207639.588466034 618075.7484707834 0.0
6371370.001601064 -417976.460422235 0.0
8344098.050431783 -311038.2732341054 0.0
6878170.5254710745 5056.944973631977 0.0
8377286.979997864 15972.552695872062 0.0
9170910.775948621 163843.7612459794 0.0
7508157.584248942 -90195.58589552864 0.0
7060285.462276878 -908343.0566128822 0.0
6795701.8229449615 24478.33790725151 0.0
7952526.2976166215 338018.03280761454 0.0
7645271.093455616 445582.79752937896 0.0
9101880.399156388 -186003.64133509668 0.0
6770921.256964859 -245788.81489423686 0.0
7910235.563714827 -136254.08299080768 0.0
8062891.157400962 -130979.64295343377 0.0
6334049.8312034635 4690.755702962523 0.0
7971258.0834343545 -467528.53931940295 0.0
7124782.8092282405 -922242.5341129744 0.0
8346088.471343032 79610.2104774648 0.0
8115213.644817399 424248.72563439264 0.0
6545534.058150338 185356.66424261156 0.0
8274423.888021286 321523.4796303377 0.0
6463781.410296469 260398.48886643883 0.0
6485207.909924222 -268546.22461473866 0.0
6547240.419883124 -583265.6022237524 0.0
6738985.396197627 233909.6153620045 0.0
8830971.64327283 201435.91914670006 0.0
9161435.52132287 -277825.4545043365 0.0
6567121.206801125 1282742.3090918958 0.0
7122682.28360627 779170.5093255811 0.0
8607663.279386602 214543.02196592872 0.0
8083337.81723905 166227.92850073442 0.0
8248984.924685481 240049.09316565006 0.0
8297666.724386116 -82349.51200536502 0.0
6370238.933348521 368747.4629144113 0.0
8484439.577959163 2106.4670641878834 0.0
8809265.013764426 363346.7317210733 0.0
9125205.341829808 325323.1543331369 0.0
8135829.86163966 -562816.0821622633 0.0
6209974.511687951 -140190.19835550667 0.0
6754188.337192162 443982.1987577428 0.0
4484693.68359958 287414.05131469877 0.0
8326439.583963917 -115506.06891644749 0.0
7928036.328213781 745737.7633940136 0.0
8434314.67045207 28293.873070804693 0.0
7317224.019242373 1262.8501761492328 0.0
6375508.835182204 -518420.0367428329 0.0
5409422.475206458 1072282.6437731853 0.0
11102868.558409475 -690145.3124825947 0.0
8530325.479142524 -2458829.7920024823 0.0
4535205.569548649 -468117.7607426641 0.0
5749054.760197105 -1084741.1858457727 0.0
5756658.183001235 1142515.2657395813 0.0
4386618.006942575 596299.9387470711 0.0
8659794.924650127 1923467.5610943197 0.0
11275480.554062005 832117.221255933 0.0
3908315.351788219 -424757.79208504624 0.0
5364086.066071201 -1032340.9240751745 0.0
VECTORS principal_stress_2 float
1040774.0463567319 9043349.080500599 0.0
-163087.69597566655 3533073.370187772 0.0
727298.9370372706 11133042.805552142 0.0
-815408.9794852092 11083001.469408037 0.0
2348469.4008938507 8610729.735719845 0.0
-1293890.3717695328 8583130.540530141 0.0
1160055.2044339494 8744167.365905471 0.0
218040.75170280342 9222549.20414279 0.0
691401.7497389924 7127151.912868921 0.0
11701.133870029988 6959750.741110998 0.0
462341.7674121077 8332627.620314731 0.0
-2910078.9946230706 7879174.170757683 0.0
-318124.21673761675 5780886.757409436 0.0
59133.99625160217 6168687.694379592 0.0
271.6897793742051 8378600.568445562 0.0
-14219.777832775699 7012688.101353866 0.0
-198682.38415847026 9076568.888418693 0.0
-1106079.1500639413 8417338.240001734 0.0
-1302150.2418982799 7400245.088334831 0.0
14086.531341662057 8497628.837911885 0.0
444982.29018405563 6746844.742145891 0.0
-464604.5836855105 6735521.0752388 0.0
-342838.5944972734 6631522.3351664925 0.0
405219.71751737496 8695360.792351801 0.0
540448.7946692798 8033400.705813355 0.0
-112592.06842702972 7592899.875979637 0.0
55816.953906485396 8647712.108196203 0.0
1298208.0934087378 6080658.013880825 0.0
-618075.7484707836 8207639.588466034 0.0
417976.4604222349 6371370.001601064 0.0
311038.27323410654 8344098.050431783 0.0
-5056.944973631694 6878170.5254710745 0.0
-15972.55269587074 8377286.979997864 0.0
-163843.7612459786 9170910.775948621 0.0
90195.58589552884 7508157.584248942 0.0
908343.056612883 7060285.462276878 0.0
-24478.337907250763 6795701.8229449615 0.0
-338018.0328076145 7952526.2976166215 0.0
-445582.7975293781 7645271.093455616 0.0
186003.6413350965 9101880.399156388 0.0
245788.81489423706 6770921.256964859 0.0
136254.08299080763 7910235.563714827 0.0
130979.6429534341 8062891.157400962 0.0
-4690.755702961538 6334049.8312034635 0.0
467528.53931940434 7971258.0834343545 0.0
922242.5341129752 7124782.8092282405 0.0
-79610.21047746432 8346088.471343032 0.0
-424248.7256343918 8115213.644817399 0.0
-185356.66424261144 6545534.058150338 0.0
-321523.4796303365 8274423.888021286 0.0
-260398.4888664385 6463781.410296469 0.0
268546.2246147388 6485207.909924222 0.0
583265.6022237529 6547240.419883124 0.0
-233909.61536200347 6738985.396197627 0.0
-201435.91914669998 8830971.64327283 0.0
277825.4545043377 9161435.52132287 0.0
-1282742.3090918958 6567121.206801125 0.0
-779170.5093255807 7122682.28360627 0.0
-214543.02196592776 8607663.279386602 0.0
-166227.92850073474 8083337.81723905 0.0
-240049.09316564925 8248984.924685481 0.0
82349.51200536473 8297666.724386116 0.0
-368747.4629144103 6370238.933348521 0.0
-2106.4670641870703 8484439.577959163 0.0
-363346.7317210733 8809265.013764426 0.0
-325323.1543331354 9125205.341829808 0.0
562816.0821622637 8135829.86163966 0.0
140190.19835550673 6209974.511687951 0.0
-443982.198757743 6754188.337192162 0.0
-287414.05131469865 4484693.68359958 0.0
115506.06891644771 8326439.583963917 0.0
-745737.7633940136 7928036.328213781 0.0
-28293.873070803296 8434314.67045207 0.0
-1262.850176148444 7317224.019242373 0.0
518420.0367428336 6375508.835182204 0.0
-1072282.6437731853 5409422.475206458 0.0
690145.3124825963 11102868.558409475 0.0
2458829.792002483 8530325.479142524 0.0
468117.7607426639 4535205.569548649 0.0
1084741.1858457727 5749054.760197105 0.0
-1142515.2657395808 5756658.183001235 0.0
-596299.9387470713 4386618.006942575 0.0
-1923467.56109432 8659794.924650127 0.0
-832117.2212559329 11275480.554062005 0.0
424757.79208504665 3908315.351788219 0.0
1032340.9240751753 5364086.066071201 0.0
POINT_DATA 56
VECTORS displacements float
0.0 0.0 0.0
3.562278533304287e-05 2.8095488122807008e-06 0.0
3.892230301375599e-05 1.9306437476288578e-06 0.0
6.525826977120717e-05 1.9046441353560652e-06 0.0
6.826864649613009e-05 2.9068044253718065e-06 0.0
0.00010932327776137802 5.415490207318235e-06 0.0
0.00010954482534915718 -4.865946892115479e-06 0.0
6.786360239914231e-05 -2.7090470403230954e-06 0.0
6.527460258612022e-05 -1.7190985641015447e-06 0.0
3.8661787836685824e-05 -1.8535153963359863e-06 0.0
3.555325894866383e-05 -2.839498899973652e-06 0.0
0.0 0.0 0.0
1.9883194045635306e-05 4.226867170484299e-06 0.0
3.600603419355113e-05 2.487939606501123e-06 0.0
5.206884698931693e-05 2.0002668556785804e-06 0.0
6.774288180044826e-05 2.569599556252913e-06 0.0
8.503590420904718e-05 3.4095861822874135e-06 0.0
9.917671217705951e-05 5.703426071324647e-07 0.0
8.46282977320804e-05 -2.532387668719417e-06 0.0
6.730942309059727e-05 -2.3916473377411134e-06 0.0
5.188073849421582e-05 -1.8236296861345428e-06 0.0
3.612346509755133e-05 -2.5345854003526086e-06 0.0
1.9909068802938477e-05 -4.10320186251188e-06 0.0
0.0 0.0 0.0
4.633502114461468e-05 -5.325722319059354e-07 0.0
4.061288631932651e-05 -1.1330658948213208e-06 0.0
5.78766519185456e-05 6.638520851483587e-07 0.0
4.432731120317246e-05 -2.3327070023308676e-07 0.0
4.9719927598337466e-05 -8.835481331176654e-08 0.0
4.5531018635731835e-05 6.370452230479008e-07 0.0
3.889842359237285e-05 1.4112009047982591e-06 0.0
5.8169310060155805e-05 -4.981934678594523e-07 0.0
3.4126261533876924e-05 -2.5046349936304685e-06 0.0
3.3743617098875904e-05 2.679603794857863e-06 0.0
3.114556696711604e-05 1.365548386206336e-06 0.0
1.6021628845331057e-05 1.0587803547596085e-07 0.0
2.5805993881732036e-05 -1.4550087181696233e-06 0.0
5.211108703351374e-05 3.9510569225637394e-07 0.0
5.778627749079279e-05 2.9055364737553726e-07 0.0
6.299064109373268e-05 8.648489023812525e-07 0.0
7.11300800083717e-05 2.3651126119195404e-06 0.0
7.019477305149165e-05 4.4800932799104395e-07 0.0
3.699276456236444e-05 -5.870885637239132e-07 0.0
5.5155503826814304e-05 -3.681600205158735e-08 0.0
6.224323336207922e-05 -1.3578956439932572e-07 0.0
6.96116409947235e-05 -1.8201168317670816e-06 0.0
6.357041247199958e-05 -1.1282275959485123e-06 0.0
8.068796174595065e-05 -4.419588855553685e-07 0.0
9.039362466279007e-05 7.341425032190425e-07 0.0
4.6901007909734e-05 1.7084543926880985e-07 0.0
5.230056625353573e-05 -5.252651306985321e-07 0.0
8.141866430973246e-06 -6.754519256336979e-07 0.0
9.222574865964126e-05 -3.719879265289625e-07 0.0
8.017124976807503e-05 1.5785847028941898e-06 0.0
7.974566143255776e-06 6.435677411236101e-07 0.0
4.0802367231733534e-05 4.51300962382998e-07 0.0