# vtk DataFile Version 2.0
Really cool data
ASCII
DATASET POLYDATA
POINTS 57 float
0.0 0.0 0
0.125 0.0 0
0.125 0.008400000000000001 0
0.175 0.008400000000000001 0
0.175 0.0 0
0.3 0.0 0
0.3 0.1 0
0.175 0.1 0
0.175 0.0916 0
0.125 0.0916 0
0.125 0.1 0
0.0 0.1 0
0.06250000013078053 0.0 0
0.125 0.004200000010715585 0
0.1500000000542101 0.008400000000000001 0
0.175 0.004199999988135897 0
0.2375000000379471 0.0 0
0.3 0.05000000007786663 0
0.2374999999024218 0.09999999999999999 0
0.175 0.09579999996747394 0
0.1499999998970008 0.0916 0
0.125 0.09579999999457899 0
0.06249999984482352 0.1 0
0.0 0.05000000007786663 0
0.1369645336138251 0.07534703819036406 0
0.1157838021006624 0.07108206033340041 0
0.1291338851660266 0.06021389729240441 0
0.1454719132441611 0.06005186883810648 0
0.162500000027105 0.02463797628574772 0
0.1380676307175665 0.04572773819038951 0
0.1218284308869475 0.04303443194142299 0
0.1544962250770786 0.0467452937423501 0
0.1631085626538873 0.06276371996480672 0
0.1712801836735388 0.04663652027610177 0
0.1811824430135325 0.05823447533986409 0
0.1923868453844597 0.04222012887740431 0
0.1304616668909741 0.03119768125021823 0
0.1146339026687599 0.02926987068780236 0
0.1022386923004914 0.05203036674104904 0
0.1479773860047798 0.03004156007979104 0
0.1631620094359708 0.07877488162250315 0
0.2021292796654562 0.07005479456989161 0
0.1769164589537693 0.07228557429941311 0
0.1364527844276834 0.01871473295059355 0
0.2202418494175498 0.03636120554614186 0
0.1908268993976228 0.01777096938088441 0
0.2567673041461964 0.05091657145627144 0
0.1781021164119911 0.03089988209101001 0
0.09349010178814145 0.02190706466868162 0
0.06773609677088602 0.05889266296734294 0
0.1033226558595519 0.0813435842909102 0
0.03133305033061035 0.0691275233088585 0
0.1511137997782823 0.07337370650419534 0
0.03418103785468278 0.0271660788771409 0
0.1628161792394194 0.03675969158900889 0
0.1266370884968543 0.02189557122215353 0
0.1766072539591797 0.02042720693941054 0
POLYGONS 88 352
3 16 5 46
3 30 26 38
3 20 9 24
3 8 20 40
3 12 1 48
3 24 9 25
3 3 45 56
3 40 32 42
3 14 28 39
3 29 36 39
3 8 40 42
3 38 25 50
3 27 26 29
3 27 31 32
3 14 39 43
3 31 29 39
3 6 18 46
3 32 34 42
3 32 40 52
3 27 29 31
3 17 6 46
3 22 11 51
3 44 16 46
3 29 30 36
3 24 25 26
3 39 28 54
3 24 26 27
3 32 31 33
3 41 44 46
3 39 36 43
3 45 47 56
3 27 32 52
3 0 12 53
3 18 41 46
3 31 39 54
3 29 26 30
3 34 41 42
3 48 49 53
3 36 37 55
3 20 24 52
3 32 33 34
3 45 35 47
3 11 23 51
3 36 30 37
3 28 47 54
3 2 43 55
3 24 27 52
3 40 20 52
3 23 0 53
3 49 51 53
3 51 23 53
3 47 33 54
3 12 48 53
3 33 31 54
3 49 38 50
3 47 28 56
3 43 36 55
3 34 33 35
3 48 38 49
3 44 35 45
3 35 33 47
3 16 44 45
3 37 30 38
3 41 35 44
3 34 35 41
3 37 38 48
3 49 22 51
3 22 49 50
3 1 13 48
3 13 2 48
3 2 14 43
3 2 37 48
3 37 2 55
3 14 3 28
3 3 15 45
3 28 3 56
3 15 4 45
3 4 16 45
3 5 17 46
3 19 18 7
3 19 8 41
3 41 8 42
3 9 21 50
3 25 9 50
3 21 10 50
3 10 22 50
3 18 19 41
3 26 25 38
CELL_DATA 88
SCALARS mises double 1
LOOKUP_TABLE default
7531852.321363208 7175487.25641366 9188966.967743702 9405069.24174206 5750175.088114604 7671238.4314849805 6860521.851558636 7246674.372352974 7892191.977328947 7388417.769645675 8082339.8229603 7512413.8097825255 7195306.947990507 7186833.348907214 8348487.823829572 7124459.587211788 7605261.396270682 7255313.0829536645 7707248.958211065 7126143.288320917 5939022.044969795 6483664.139841784 6531095.38741595 7135230.079401109 7268715.755046483 7598096.220247042 7173867.719534114 7045266.149947317 6179964.044801656 7430849.853650413 7100529.681880424 7224363.573178501 6528453.6373223 6587851.24830992 7335573.262442948 7249683.35427085 6878193.669484724 6852644.168947119 7041212.576683897 7924473.831763358 7067402.881971934 7346783.192492216 5991694.398524225 7208471.205956074 7304807.830435051 8405162.700580698 7812761.434300898 8162115.151288901 5991272.553688906 6571399.415239144 6147666.894754184 7365816.205720252 6891549.888562315 7029401.35682984 7095317.620081289 7762084.695256752 7846019.247971257 7123196.19433831 7284762.545383905 6638933.37643055 6945053.935408158 6632175.4796659285 7414127.316708688 6918502.134422857 7186962.360529962 7272143.96117922 6839997.026720655 6569360.294177306 5924069.727290554 7507645.2920817975 9505584.324474744 6578597.8635433065 7847911.863183933 9272694.90878096 8206292.580023822 7410803.869518412 5153765.733973408 6177206.69124728 5796036.183907053 6253235.434216191 7830757.652842257 7067493.523673428 7936399.75328706 6502613.044148146 5595230.613736088 5723030.018806821 6223370.55521167 7447116.740682943
VECTORS principal_stress_1 float
7580617.620817747 -480940.48003660137 0.0
7268169.780045125 37804.069534824106 0.0
9306502.99033465 -381414.2893715098 0.0
9498044.789996639 411606.6826676342 0.0
5826194.54591555 377985.3364348991 0.0
7796611.721377495 -698864.3421463224 0.0
7033048.258723189 -880810.5176508729 0.0
7519334.527403165 147465.40583909652 0.0
8017091.19472447 -105260.03513443113 0.0
7648756.354551469 18091.444352969593 0.0
8259183.963883967 752763.1763869638 0.0
7424197.2357216915 -142763.79721451335 0.0
7453430.375858684 75502.16612295192 0.0
7509926.964085228 10699.19060982492 0.0
8533752.665914647 32473.72208355095 0.0
7421268.727715 41781.79977215131 0.0
7635395.785810356 494428.2504889794 0.0
7439752.718522797 225305.869784167 0.0
8028793.618083367 318673.9262999613 0.0
7435593.952226453 -21626.702477068153 0.0
5759948.667695655 1148351.383964903 0.0
6749481.324862965 -396398.98613912874 0.0
6493855.178051692 -365507.78517084685 0.0
7356301.568509564 107142.47295768223 0.0
7461182.090530287 11507.14892121079 0.0
7923750.209933517 -259279.1460454008 0.0
7462908.2139011985 -165006.9039091308 0.0
7342105.737122449 71851.9799267689 0.0
6142704.102277746 -25422.28441542234 0.0
7691532.513585959 289558.2962832102 0.0
7181188.257634702 -405543.4396068965 0.0
7471461.525111982 32462.760594019288 0.0
6786263.395421011 330596.0602085482 0.0
6573491.5779666025 449498.9379890035 0.0
7654891.004800165 -2822.685259159469 0.0
7402833.571120148 -84016.7569326343 0.0
7015652.63184606 151863.89646687734 0.0
6770007.638190759 135654.56167687158 0.0
7207181.130552477 361261.61478074454 0.0
8037815.956269155 -87482.45651987044 0.0
7320256.57409234 -14469.615262051639 0.0
7425019.336955018 -324102.57601378084 0.0
6539953.529582617 -232131.86979587708 0.0
7289292.771907803 -66622.53841846596 0.0
7593196.921621381 -64655.99294681683 0.0
8527449.933466699 801091.3460272433 0.0
8116527.344376623 -81443.90545056397 0.0
8309099.146487359 39123.12581706221 0.0
6541189.668969956 301004.013943479 0.0
6826559.479264097 -106631.36938900393 0.0
6370274.79371323 19630.59944376408 0.0
7596023.421730455 -52109.908776216755 0.0
6696902.551729855 -8233.207822134806 0.0
7352036.723493589 -81132.97923769015 0.0
6965431.975025757 -222855.30892865482 0.0
7898567.597847536 -384231.8827123196 0.0
8076696.195351569 239946.0822381927 0.0
7251994.804874632 122815.40836786007 0.0
7113481.714283243 102273.81648737451 0.0
6662096.642062717 -457051.7137606093 0.0
7096927.118386844 -214934.2023548594 0.0
6581823.871910376 -384932.6539970811 0.0
7369717.557311891 120049.32008622638 0.0
6918852.93732781 81587.12379350627 0.0
7226913.056694687 16406.12417117121 0.0
7145375.804968487 -7865.354656201719 0.0
6726409.435412999 -103709.9443978103 0.0
6457713.298106749 67490.63794482307 0.0
5895340.760395517 366261.1762900073 0.0
7423471.333355888 1248150.5657699336 0.0
9527688.731007487 433214.2465063213 0.0
6627801.0720824 661028.4228178823 0.0
7919896.182625545 748670.4260122596 0.0
9437794.755402874 -446952.9282260802 0.0
8135808.750827773 -1374049.3890914053 0.0
7619622.810653611 -847445.3130963264 0.0
5184714.89560125 -395297.0566432713 0.0
6298927.043426791 -758295.2511662422 0.0
5635826.491840421 -1136681.979421059 0.0
6281473.654728867 422115.03352581087 0.0
7795630.962443913 976323.3732574458 0.0
7162382.453609802 802139.1212435868 0.0
7819291.929051873 -1378078.1943369599 0.0
6521155.306581899 -505389.187063991 0.0
5563539.052109341 -334201.9619808053 0.0
5820099.203206961 -514523.0024243854 0.0
6275846.187282047 557119.6221818195 0.0
7376935.9051417345 -152925.81889574576 0.0
VECTORS principal_stress_2 float
480940.480036602 7580617.620817747 0.0
-37804.06953482396 7268169.780045125 0.0
381414.2893715094 9306502.99033465 0.0
-411606.6826676346 9498044.789996639 0.0
-377985.3364348988 5826194.54591555 0.0
698864.342146322 7796611.721377495 0.0
880810.5176508728 7033048.258723189 0.0
-147465.40583909533 7519334.527403165 0.0
105260.0351344315 8017091.19472447 0.0
-18091.444352968658 7648756.354551469 0.0
-752763.1763869642 8259183.963883967 0.0
142763.7972145143 7424197.2357216915 0.0
-75502.1661229523 7453430.375858684 0.0
-10699.19060982408 7509926.964085228 0.0
-32473.72208354976 8533752.665914647 0.0
-41781.79977215156 7421268.727715 0.0
-494428.2504889791 7635395.785810356 0.0
-225305.86978416634 7439752.718522797 0.0
-318673.92629995995 8028793.618083367 0.0
21626.702477068844 7435593.952226453 0.0
-1148351.3839649032 5759948.667695655 0.0
396398.9861391285 6749481.324862965 0.0
365507.7851708474 6493855.178051692 0.0
-107142.47295768118 7356301.568509564 0.0
-11507.148921210224 7461182.090530287 0.0
259279.14604540178 7923750.209933517 0.0
165006.9039091306 7462908.2139011985 0.0
-71851.97992676872 7342105.737122449 0.0
25422.284415423033 6142704.102277746 0.0
-289558.2962832096 7691532.513585959 0.0
405543.43960689736 7181188.257634702 0.0
-32462.760594018244 7471461.525111982 0.0
-330596.0602085478 6786263.395421011 0.0
-449498.9379890033 6573491.5779666025 0.0
2822.6852591599977 7654891.004800165 0.0
84016.75693263487 7402833.571120148 0.0
-151863.89646687693 7015652.63184606 0.0
-135654.56167687048 6770007.638190759 0.0
-361261.6147807445 7207181.130552477 0.0
87482.45651987067 8037815.956269155 0.0
14469.615262051288 7320256.57409234 0.0
324102.5760137808 7425019.336955018 0.0
232131.86979587757 6539953.529582617 0.0
66622.53841846719 7289292.771907803 0.0
64655.99294681699 7593196.921621381 0.0
-801091.346027242 8527449.933466699 0.0
81443.90545056404 8116527.344376623 0.0
-39123.1258170621 8309099.146487359 0.0
-301004.0139434785 6541189.668969956 0.0
106631.36938900444 6826559.479264097 0.0
-19630.599443763076 6370274.79371323 0.0
52109.90877621683 7596023.421730455 0.0
8233.207822135057 6696902.551729855 0.0
81132.9792376912 7352036.723493589 0.0
222855.30892865598 6965431.975025757 0.0
384231.8827123201 7898567.597847536 0.0
-239946.08223819177 8076696.195351569 0.0
-122815.40836785914 7251994.804874632 0.0
-102273.8164873747 7113481.714283243 0.0
457051.71376061003 6662096.642062717 0.0
214934.20235486043 7096927.118386844 0.0
384932.6539970818 6581823.871910376 0.0
-120049.32008622552 7369717.557311891 0.0
-81587.12379350625 6918852.93732781 0.0
-16406.12417117043 7226913.056694687 0.0
7865.35465620238 7145375.804968487 0.0
103709.94439781024 6726409.435412999 0.0
-67490.6379448221 6457713.298106749 0.0
-366261.1762900074 5895340.760395517 0.0
-1248150.5657699325 7423471.333355888 0.0
-433214.24650632095 9527688.731007487 0.0
-661028.4228178812 6627801.0720824 0.0
-748670.4260122583 7919896.182625545 0.0
446952.9282260817 9437794.755402874 0.0
1374049.3890914056 8135808.750827773 0.0
847445.3130963276 7619622.81065361 0.0
395297.0566432721 5184714.89560125 0.0
758295.2511662425 6298927.043426791 0.0
1136681.9794210591 5635826.491840421 0.0
-422115.03352581104 6281473.654728867 0.0
-976323.3732574456 7795630.962443913 0.0
-802139.121243587 7162382.453609802 0.0
1378078.1943369608 7819291.929051873 0.0
505389.1870639919 6521155.306581899 0.0
334201.9619808058 5563539.052109341 0.0
514523.0024243853 5820099.203206961 0.0
-557119.6221818186 6275846.187282047 0.0
152925.81889574594 7376935.9051417345 0.0
POINT_DATA 57
VECTORS displacements float
0.0 0.0 0.0
3.744215209220862e-05 3.3797843544440253e-06 0.0
3.844147828066121e-05 2.751811816925625e-06 0.0
6.113032030446949e-05 2.5630534452155636e-06 0.0
6.224909908721487e-05 3.1672831871998158e-06 0.0
0.00010364065715192315 4.8375362278262655e-06 0.0
0.00010338902255737813 -3.306364821895334e-06 0.0
6.169605299547173e-05 -2.6883153013404082e-06 0.0
6.088985883135171e-05 -2.0888904656874444e-06 0.0
3.840258597520626e-05 -2.4197493642002833e-06 0.0
3.725343585821974e-05 -3.070640677436208e-06 0.0
0.0 0.0 0.0
2.004949692478008e-05 3.6997255906895244e-06 0.0
3.76754446457175e-05 3.1259977934473454e-06 0.0
4.987530439554685e-05 2.3967674286335227e-06 0.0
6.20334261147231e-05 2.9649802473120364e-06 0.0
8.09483976900537e-05 3.842191200589819e-06 0.0
9.61162086666997e-05 8.370156923396145e-07 0.0
8.051119114553675e-05 -2.7446318747894425e-06 0.0
6.148816541019051e-05 -2.4409261339388386e-06 0.0
4.9525415432484045e-05 -2.012772549794862e-06 0.0
3.749391320781313e-05 -2.8295742797428936e-06 0.0
1.9922924437333117e-05 -3.712763074835942e-06 0.0
0.0 0.0 0.0
4.468899369203354e-05 -9.469768544812794e-07 0.0
3.7303045650922846e-05 -1.3956297213348484e-06 0.0
4.2371620218156684e-05 -4.020050064889396e-07 0.0
4.814062472257959e-05 -1.9986655061317221e-07 0.0
5.458472200090571e-05 1.2566257159719413e-06 0.0
4.558156943883188e-05 3.618347779582249e-07 0.0
3.986231853964979e-05 5.9870152892863e-07 0.0
5.134644383299179e-05 3.306960195792196e-07 0.0
5.43885764256347e-05 -2.744252329844664e-07 0.0
5.716765411025529e-05 4.046119210151499e-07 0.0
6.064086138176559e-05 -1.6162167757165953e-07 0.0
6.445461370087615e-05 8.608394000973822e-07 0.0
4.266220418820689e-05 1.115638804085924e-06 0.0
3.710606540466766e-05 1.6378289807618065e-06 0.0
3.303693546666283e-05 -6.58903184588003e-08 0.0
4.899737615808112e-05 1.0077101923515286e-06 0.0
5.487081620993999e-05 -9.880925147113225e-07 0.0
6.795459239477311e-05 -9.902475539251653e-07 0.0
5.957822078278261e-05 -8.809513230825506e-07 0.0
4.434072746509177e-05 1.6573829022155195e-06 0.0
7.366502978195257e-05 1.2532435751592425e-06 0.0
6.526535437039583e-05 2.4045101919041097e-06 0.0
8.432711963805029e-05 6.112077494171932e-07 0.0
6.001192902848665e-05 1.3161987186523346e-06 0.0
2.9721663050986595e-05 2.4539822781267886e-06 0.0
2.1195532346951337e-05 -7.326124361988252e-07 0.0
3.251690287523382e-05 -2.3910645429040634e-06 0.0
9.454108651967773e-06 -6.719828426559918e-07 0.0
5.0145880973448924e-05 -8.056234243893566e-07 0.0
1.0312704479726732e-05 9.511274662147705e-07 0.0
5.435758661238029e-05 7.368875130396135e-07 0.0
4.073360327512911e-05 1.7146409840128142e-06 0.0
6.020400411004687e-05 1.935065428239293e-06 0.0