# vtk DataFile Version 2.0
Really cool data
ASCII
DATASET POLYDATA
POINTS 53 float
0.0 0.0 0
0.125 0.0 0
0.125 0.005633333333333334 0
0.175 0.005633333333333334 0
0.175 0.0 0
0.3 0.0 0
0.3 0.1 0
0.175 0.1 0
0.175 0.09436666666666667 0
0.125 0.09436666666666667 0
0.125 0.1 0
0.0 0.1 0
0.06250000013078053 0.0 0
0.125 0.002816666671104918 0
0.1500000000542101 0.005633333333333334 0
0.175 0.002816666656170373 0
0.2375000000379471 0.0 0
0.3 0.05000000007786663 0
0.2374999999024218 0.09999999999999999 0
0.175 0.09718333328725474 0
0.1499999998970008 0.09436666666666667 0
0.125 0.09718333326286019 0
0.06249999984482352 0.1 0
0.0 0.05000000007786663 0
0.1374999999485004 0.07812869041260835 0
0.162500000027105 0.02187130961908106 0
0.1375000000271051 0.02187130964255472 0
0.1500000000394744 0.03504494938878774 0
0.1624999999485004 0.07812869036800839 0
0.1499999999228288 0.06373877089856307 0
0.1500000000369736 0.02110522549593921 0
0.1335224733879272 0.03868534815457873 0
0.1102405957742797 0.07495529664941024 0
0.166838660350823 0.03938036654082119 0
0.1221202859258476 0.02825804920431453 0
0.1787372903309791 0.02654860829435686 0
0.1875189924900674 0.04378615753045677 0
0.1150963451712943 0.04562357537936041 0
0.170072303650188 0.06018164168397597 0
0.1930806248993174 0.07153420047636205 0
0.2168126585885952 0.05849849055995851 0
0.1294458571696531 0.05845472679416766 0
0.1010604492018875 0.02290022687112005 0
0.08845492661397536 0.05829264569774257 0
0.1561046652926985 0.04886716828178742 0
0.2535601366172716 0.05036902076207352 0
0.04517308978085778 0.04430339119835853 0
0.1751632321245014 0.07605279979875326 0
0.2052066884671503 0.02131520567014785 0
0.1499999999292076 0.0785907045864616 0
0.2723645742112009 0.02500000003893329 0
0.1438145991625163 0.04895819270357692 0
0.1142032350349454 0.0610664928625818 0
POLYGONS 80 320
3 22 11 46
3 20 9 24
3 32 43 52
3 28 29 38
3 2 26 34
3 8 28 47
3 18 39 40
3 45 40 48
3 25 3 35
3 28 38 47
3 17 6 45
3 23 0 46
3 24 9 32
3 6 18 45
3 29 24 41
3 24 32 41
3 0 12 46
3 42 43 46
3 29 28 49
3 26 27 31
3 16 45 48
3 27 26 30
3 27 25 33
3 36 35 48
3 16 5 50
3 43 22 46
3 25 27 30
3 12 42 46
3 45 16 50
3 29 41 51
3 26 14 30
3 38 29 44
3 18 40 45
3 24 29 49
3 28 20 49
3 44 29 51
3 14 25 30
3 33 38 44
3 41 32 52
3 38 39 47
3 27 33 44
3 33 36 38
3 20 24 49
3 37 31 41
3 41 31 51
3 38 36 39
3 33 25 35
3 40 36 48
3 26 31 34
3 5 17 50
3 33 35 36
3 43 37 52
3 34 31 37
3 31 27 51
3 17 45 50
3 27 44 51
3 42 37 43
3 39 36 40
3 34 37 42
3 37 41 52
3 12 1 42
3 1 13 42
3 13 2 42
3 2 14 26
3 2 34 42
3 14 3 25
3 3 15 48
3 35 3 48
3 15 4 48
3 4 16 48
3 19 18 7
3 8 18 19
3 18 8 39
3 8 20 28
3 39 8 47
3 9 21 22
3 9 22 32
3 21 10 22
3 11 23 46
3 32 22 43
CELL_DATA 80
SCALARS mises double 1
LOOKUP_TABLE default
6582788.532766022 8371458.59419131 7064240.454043801 6990412.015686301 7464310.300685122 7394566.874434081 6759512.224479171 6211133.439882206 7420160.989488927 7143464.340067241 5379558.206077231 5962555.88066879 7266560.25469472 7538354.100345786 7047119.023270512 7072772.1849595085 6547199.675764481 6975188.9303519195 7433902.729786586 7035329.717495085 6376602.481049237 7442641.583654079 7019378.088313358 6913191.945483318 8612297.678575536 6867716.171369897 7448406.2124192035 6755902.547759919 6735654.7680759085 6940036.946034402 7475985.239517508 6946699.326498634 6500172.208820437 7436325.698054468 7467497.387979668 6896847.297314052 7480007.493278955 6953808.591660689 7150765.793188115 6777147.93528214 6928466.890865335 6846720.66983634 7469426.05614452 6983865.226269239 7010220.099799123 6952909.527873499 7042277.75734524 6794011.314533743 6955586.937676389 7523310.855305556 7003566.982194189 7012529.548969095 7129895.012896195 6959733.5126496665 5198406.031663374 6894277.018099561 7187722.878108013 6480317.110786511 7054664.987441341 7182615.956555557 6044006.769611667 6150304.5391303245 7622533.73969359 8397432.306015374 6753808.18710688 8411422.695084654 7424809.494718993 6758314.702971554 6244741.654873054 6359845.78760515 6501883.255124554 6415523.70067609 6518363.73234107 8418628.553471347 7077045.911998107 6031356.534579687 6153217.0431042565 6112545.074635626 5962555.88066879 6660519.104802864
VECTORS principal_stress_1 float
6740082.248912197 -353598.4533970056 0.0
8431007.916039577 -202294.9096858327 0.0
6995231.235502555 -151723.58099034752 0.0
7199865.044921015 101637.77428689535 0.0
7530978.782889893 401385.7487761368 0.0
7472806.425865942 486942.3742845432 0.0
6764387.149456322 314006.37736115715 0.0
6243710.060687379 -54097.67814099261 0.0
7493391.797504086 -455113.1767973792 0.0
7323380.488280283 33680.6519094903 0.0
5299884.281425552 1182851.0081207023 0.0
6505875.240715959 64759.97628844372 0.0
7294747.544341405 -488294.5454892559 0.0
7567305.228225307 406465.1717658479 0.0
7209139.792398382 -121844.78817791346 0.0
7171104.006863654 13910.95092053637 0.0
6702804.00571392 322518.8716537609 0.0
6872749.702492239 65319.2942664758 0.0
7571251.156941444 62427.793076600225 0.0
7226071.0274120895 113450.67858858887 0.0
6566161.883728082 -310269.50493030314 0.0
7578781.785364473 42134.76386223466 0.0
7219591.997389967 -133632.4889536454 0.0
6980827.678407311 -165587.387875066 0.0
8262150.348429658 -718425.4606681707 0.0
6860488.073509172 105869.58891266798 0.0
7585295.116366779 -64414.86115243573 0.0
6705034.323175142 -114555.95408595276 0.0
6961346.1387439715 -361292.5794290683 0.0
7126344.342515377 28223.773774630004 0.0
7556360.737514322 44929.038566310075 0.0
7144469.542702122 -24363.65345531555 0.0
6469805.773559065 383391.99984951614 0.0
7573794.444185021 -41415.287476822145 0.0
7547498.048938475 62596.39023757697 0.0
7100002.734885937 -10312.750890461539 0.0
7560871.736586787 -54084.41794303837 0.0
7126665.112492427 -2388.8488241674654 0.0
7113715.509336266 -81410.23532615961 0.0
6894672.249571155 156597.8576668666 0.0
7130180.919234257 17438.009420785627 0.0
7006560.531169196 16505.58256724025 0.0
7549467.08906432 -35938.54165226805 0.0
7100962.905494023 -14506.813238116452 0.0
7136423.273830114 13703.267792690005 0.0
7068798.831137828 10377.872939216384 0.0
7215221.679408924 -33222.498504582734 0.0
6895957.181092204 -152382.00617588096 0.0
7106032.222229738 -11674.398223291975 0.0
7092396.942077141 -1168214.829329072 0.0
7068247.840118345 -164974.70792426402 0.0
6975237.208120552 -35983.46479417712 0.0
7149710.505973702 51441.754487408 0.0
7148526.76452435 -37619.841150196444 0.0
5260819.7049486 -916623.0111010976 0.0
7102442.290934703 3448.2118896126176 0.0
7088178.772644902 53752.620143725675 0.0
6521960.625292212 154167.96924703155 0.0
7031167.65469112 -30211.335707043352 0.0
7169548.6324723745 33520.60685910611 0.0
6085976.289661308 274917.1648905543 0.0
6124212.392851393 241641.90835675783 0.0
7473911.223974355 696865.0441019259 0.0
8450519.101051934 206800.46614716479 0.0
6759869.293366183 435838.0330055834 0.0
8479537.022935443 -235481.19998993052 0.0
7329052.499061913 -861536.8689127318 0.0
6802818.539014442 -548701.9428208176 0.0
6239505.586998367 -278310.9070384599 0.0
6437140.014013436 -415740.86443238554 0.0
6515088.514288991 293613.3276389972 0.0
6520169.800004067 880132.2512416076 0.0
6569573.266739401 427603.604947371 0.0
8493246.093912395 256832.62757295015 0.0
7126458.5607294915 542060.8619924589 0.0
6129736.73746308 -827429.2163541424 0.0
6194294.59283633 -286985.2778419704 0.0
6124959.723557707 -276031.5244293208 0.0
6505875.240715959 64759.97628844372 0.0
6609313.727276659 21738.101150063925 0.0
VECTORS principal_stress_2 float
353598.4533970059 6740082.248912197 0.0
202294.9096858324 8431007.916039577 0.0
151723.58099034795 6995231.235502555 0.0
-101637.77428689464 7199865.044921015 0.0
-401385.74877613713 7530978.782889893 0.0
-486942.37428454345 7472806.425865942 0.0
-314006.3773611569 6764387.149456322 0.0
54097.67814099331 6243710.060687379 0.0
455113.17679737986 7493391.797504086 0.0
-33680.65190948955 7323380.488280283 0.0
-1182851.0081207016 5299884.281425552 0.0
-64759.97628844389 6505875.240715959 0.0
488294.54548925563 7294747.544341405 0.0
-406465.1717658469 7567305.228225307 0.0
121844.78817791317 7209139.792398382 0.0
-13910.950920535835 7171104.006863654 0.0
-322518.87165376043 6702804.00571392 0.0
-65319.29426647582 6872749.702492239 0.0
-62427.793076599926 7571251.156941444 0.0
-113450.67858858767 7226071.0274120895 0.0
310269.50493030355 6566161.883728082 0.0
-42134.76386223389 7578781.785364473 0.0
133632.48895364557 7219591.997389967 0.0
165587.38787506666 6980827.678407311 0.0
718425.4606681713 8262150.348429658 0.0
-105869.58891266724 6860488.073509172 0.0
64414.86115243554 7585295.116366779 0.0
114555.95408595265 6705034.323175142 0.0
361292.5794290693 6961346.1387439715 0.0
-28223.773774629888 7126344.342515377 0.0
-44929.03856630941 7556360.737514322 0.0
24363.653455316733 7144469.542702122 0.0
-383391.99984951515 6469805.773559065 0.0
41415.28747682292 7573794.444185021 0.0
-62596.39023757725 7547498.048938475 0.0
10312.750890461406 7100002.734885937 0.0
54084.41794303838 7560871.736586787 0.0
2388.8488241681926 7126665.112492427 0.0
81410.23532615948 7113715.509336266 0.0
-156597.85766686653 6894672.249571155 0.0
-17438.009420784696 7130180.919234257 0.0
-16505.582567239675 7006560.531169196 0.0
35938.541652267915 7549467.08906432 0.0
14506.81323811738 7100962.905494023 0.0
-13703.267792689352 7136423.273830114 0.0
-10377.87293921575 7068798.831137828 0.0
33222.49850458331 7215221.679408924 0.0
152382.00617588102 6895957.181092204 0.0
11674.398223292897 7106032.222229738 0.0
1168214.8293290725 7092396.942077141 0.0
164974.70792426373 7068247.840118345 0.0
35983.46479417778 6975237.208120552 0.0
-51441.754487408296 7149710.505973702 0.0
37619.84115019766 7148526.76452435 0.0
916623.0111010976 5260819.7049486 0.0
-3448.2118896118345 7102442.290934703 0.0
-53752.620143725544 7088178.772644902 0.0
-154167.96924703132 6521960.625292212 0.0
30211.335707043992 7031167.654691119 0.0
-33520.60685910579 7169548.6324723745 0.0
-274917.1648905544 6085976.289661308 0.0
-241641.90835675795 6124212.392851393 0.0
-696865.0441019253 7473911.223974355 0.0
-206800.46614716362 8450519.101051934 0.0
-435838.03300558333 6759869.293366183 0.0
235481.19998993143 8479537.022935443 0.0
861536.8689127328 7329052.499061913 0.0
548701.9428208182 6802818.539014442 0.0
278310.90703846 6239505.586998367 0.0
415740.8644323863 6437140.014013436 0.0
-293613.32763899723 6515088.514288991 0.0
-880132.2512416069 6520169.800004067 0.0
-427603.6049473708 6569573.266739402 0.0
-256832.6275729491 8493246.093912395 0.0
-542060.8619924589 7126458.5607294915 0.0
827429.216354143 6129736.73746308 0.0
286985.277841971 6194294.59283633 0.0
276031.5244293216 6124959.723557707 0.0
-64759.97628844389 6505875.240715959 0.0
-21738.101150063725 6609313.727276659 0.0
POINT_DATA 53
VECTORS displacements float
0.0 0.0 0.0
3.815973370471237e-05 3.123256139908765e-06 0.0
3.86036877046262e-05 2.699464622696968e-06 0.0
5.888937955459037e-05 2.4210979050644104e-06 0.0
5.928195071360538e-05 2.829814371977773e-06 0.0
0.00010365932867457815 5.235128865479575e-06 0.0
0.00010168953893301481 -4.1145902449371e-06 0.0
5.945688649852784e-05 -3.2228123582578085e-06 0.0
5.906263515866204e-05 -2.8858210167109626e-06 0.0
3.8790628481749715e-05 -3.0110128737237054e-06 0.0
3.8420023972373885e-05 -3.3278249002018224e-06 0.0
0.0 0.0 0.0
1.993433760824012e-05 3.4125694595101896e-06 0.0
3.8270522402321296e-05 2.9492002472989482e-06 0.0
4.873303298607059e-05 2.344690701631993e-06 0.0
5.920666926687119e-05 2.657890366578884e-06 0.0
7.85068588556818e-05 2.2390263236594354e-06 0.0
9.354097606128323e-05 -5.488327518004907e-07 0.0
7.900568074887029e-05 -3.3758025490229586e-06 0.0
5.935466416369639e-05 -3.0483309947386327e-06 0.0
4.8893430812690224e-05 -2.7518807502530694e-06 0.0
3.851610578269801e-05 -3.1637916210119873e-06 0.0
2.004182732201251e-05 -3.471224121776927e-06 0.0
0.0 0.0 0.0
4.438427671118357e-05 -1.6556683486781535e-06 0.0
5.3327045926004434e-05 1.1620425457943917e-06 0.0
4.428168844289386e-05 1.2828031650433257e-06 0.0
4.884986203475843e-05 5.137458966242661e-07 0.0
5.3417745047773897e-05 -1.6054216607928245e-06 0.0
4.8913907591260844e-05 -8.503543817090736e-07 0.0
4.879977761973641e-05 1.3419335179952446e-06 0.0
4.326457174578254e-05 4.687658123099121e-07 0.0
3.509069324359585e-05 -1.955125324084715e-06 0.0
5.456383804205945e-05 2.969076060459546e-07 0.0
3.919875709759941e-05 1.2635243001843935e-06 0.0
5.8835701248675544e-05 1.0940732248410738e-06 0.0
6.148042747904091e-05 3.128340478381203e-08 0.0
3.703839829362637e-05 1.6282317022646578e-07 0.0
5.5719819491539474e-05 -7.788723587913328e-07 0.0
6.357556950763166e-05 -1.5746122563524044e-06 0.0
7.082922910725336e-05 -6.952295715089545e-07 0.0
4.1944292903271275e-05 -6.332088730137233e-07 0.0
3.200333218809303e-05 1.9750620077319727e-06 0.0
2.803561703122152e-05 -7.248947714827738e-07 0.0
5.095020362701076e-05 -1.5576414225495822e-07 0.0
8.19280423488724e-05 -4.6236923010761856e-08 0.0
1.3563773005607034e-05 2.700564115899081e-07 0.0
5.779170480058195e-05 -1.6875143179054955e-06 0.0
6.77711063812732e-05 1.3615600582960162e-06 0.0
4.8901393717689105e-05 -1.730004425059928e-06 0.0
8.907646307419749e-05 1.0580015560430763e-06 0.0
4.6805524864091225e-05 -1.2777423794344745e-07 0.0
3.667761540405835e-05 -9.277516532333888e-07 0.0