# vtk DataFile Version 2.0
Really cool data
ASCII
DATASET POLYDATA
POINTS 53 float
0.0 0.0 0
0.125 0.0 0
0.125 0.01946666666666667 0
0.175 0.01946666666666667 0
0.175 0.0 0
0.3 0.0 0
0.3 0.1 0
0.175 0.1 0
0.175 0.08053333333333335 0
0.125 0.08053333333333335 0
0.125 0.1 0
0.0 0.1 0
0.06250000013078053 0.0 0
0.125 0.009733333354306066 0
0.1500000000542101 0.01946666666666666 0
0.175 0.009733333305809755 0
0.2375000000379471 0.0 0
0.3 0.05000000007786663 0
0.2374999999024218 0.09999999999999999 0
0.175 0.0902666665799305 0
0.1499999998970008 0.08053333333333336 0
0.125 0.09026666665311416 0
0.06249999984482352 0.1 0
0.0 0.05000000007786663 0
0.1368576653327938 0.0642568533942382 0
0.1196090302549985 0.06241275778476788 0
0.162500000027105 0.03570464295241439 0
0.1291338851664036 0.04914723062004805 0
0.1636023968852789 0.06615608112953981 0
0.1440076905740673 0.04915983528586414 0
0.1375000000271051 0.032853840761872 0
0.1233604050952769 0.03492645417118049 0
0.1096548078621084 0.02151270704863183 0
0.1111139787020725 0.0453946759740667 0
0.08682424117383106 0.03671578402663844 0
0.1017737544724117 0.07071571547022164 0
0.05914278580356819 0.05040250598985259 0
0.02998074967835198 0.03014311288709515 0
0.02987307305889863 0.07046383868792798 0
0.1496916946736029 0.03698291377907609 0
0.15984369274682 0.05001139440581288 0
0.1742475009339194 0.04431518369030039 0
0.1714223014463396 0.05603215790351799 0
0.1854411743962786 0.05739505726557657 0
0.1738664681819743 0.06502915740799192 0
0.265680268137317 0.06835033521525159 0
0.218049646968509 0.05785857812526854 0
0.259916316832863 0.03457242658617914 0
0.204248938849594 0.0229204452259292 0
0.1892766081078393 0.03881211189758031 0
0.1740017912174247 0.03321300906500343 0
0.1653754478246849 0.02696274633768779 0
0.1506159207605381 0.0619362634129431 0
POLYGONS 80 320
3 8 43 46
3 20 9 24
3 24 9 25
3 12 32 34
3 2 14 30
3 48 46 49
3 2 30 31
3 41 26 50
3 32 31 33
3 29 27 30
3 47 46 48
3 22 11 38
3 0 12 37
3 26 14 51
3 40 26 41
3 50 26 51
3 24 27 29
3 24 25 27
3 33 25 35
3 30 27 31
3 16 5 47
3 6 18 45
3 37 36 38
3 12 34 36
3 42 43 44
3 39 26 40
3 14 26 39
3 40 41 42
3 5 17 47
3 27 25 33
3 29 30 39
3 35 22 36
3 29 39 40
3 23 37 38
3 16 47 48
3 28 20 52
3 23 0 37
3 11 23 38
3 31 27 33
3 12 36 37
3 20 24 52
3 2 31 32
3 36 22 38
3 29 40 52
3 40 28 52
3 24 29 52
3 34 35 36
3 17 6 45
3 49 41 50
3 45 46 47
3 3 50 51
3 32 33 34
3 28 40 42
3 28 42 44
3 42 41 43
3 30 14 39
3 34 33 35
3 45 18 46
3 43 41 49
3 17 45 47
3 12 1 32
3 14 3 51
3 1 13 32
3 13 2 32
3 3 15 48
3 3 48 49
3 3 49 50
3 15 4 48
3 4 16 48
3 19 18 7
3 8 18 19
3 18 8 46
3 8 20 28
3 8 28 44
3 43 8 44
3 9 21 35
3 25 9 35
3 21 10 35
3 10 22 35
3 46 43 49
CELL_DATA 80
SCALARS mises double 1
LOOKUP_TABLE default
7493817.763724623 12696386.649989896 9307415.05809552 6261600.267953033 12929064.675546844 8358521.233957321 9900356.191068677 9442138.606200118 9432073.143476807 8943358.821140204 6475218.483227085 6484287.94491661 6484901.755944979 12008503.020952515 8718896.739331389 9479342.953667583 8935967.761175018 8877230.620737182 8903273.202152245 9406003.811184835 8199979.962797928 8357816.325530027 6701451.506889 7362681.063430721 8206351.183959818 10225912.06272323 10507809.595700527 9192986.64241074 6509796.699299922 9040642.596581273 10196958.81177442 7221852.253971605 9371909.96270313 6121404.35667824 6489561.284615094 10395496.473000204 5952473.681349577 5950389.696904563 8422799.049670048 7030600.465944167 10231755.415556654 7418995.932962059 7033785.26111309 9380179.025668876 9934812.698959209 9993781.569294728 7465716.689661233 6924058.327870876 8009411.06028219 6635674.2620584015 11470219.030632468 7507814.091538172 8789141.249565654 9834507.04137338 8380525.307623962 10596897.675558595 8827678.077004893 6501640.08385793 8760591.862713229 4438629.09761823 4539352.598767515 13066845.026312571 2860069.879808309 8267232.858438144 7380059.202982369 6642847.061415886 9277979.25045652 4494072.067404519 4849726.788418455 5464632.772420634 4688690.746471311 6412374.391191271 12836619.515497383 10272613.311752543 9656697.437845083 8846477.879588956 7105748.459243305 4378750.293651475 4757307.265500073 7614320.912610455
VECTORS principal_stress_1 float
7737824.007357267 1423527.5368680505 0.0
13147254.266661223 -1151643.4330317175 0.0
9932172.865513809 -1748744.109540057 0.0
6040342.083252203 199918.0009755872 0.0
13340092.191885488 1140459.4818954566 0.0
8336575.037438144 -519151.4878499748 0.0
10647698.563023461 1906613.537871524 0.0
10061413.616710642 -686796.0486847224 0.0
9550194.929608054 719813.7988005196 0.0
9628016.309715657 516755.68640121195 0.0
6334980.307503486 -376135.211918488 0.0
6703888.350690977 -492371.53857357183 0.0
6705670.1920329435 493575.2440967199 0.0
12558964.274538206 -848298.4201939711 0.0
9342850.307427257 -295977.3266930455 0.0
9932480.299498864 -805732.4720120468 0.0
9635817.220168335 -374686.19373519195 0.0
9385451.879351987 85325.92066424072 0.0
8805430.10067327 -5876.398106608363 0.0
9944218.88268073 190678.95395237513 0.0
8014508.840434341 -572162.167297978 0.0
8093138.542943381 688542.6839158975 0.0
6953558.101678547 -3865.1758399656787 0.0
7151239.021595626 32331.193259764666 0.0
8627531.528478604 982026.0808828617 0.0
10949874.655579116 -422684.16527583107 0.0
10799568.637606004 -162533.40654898662 0.0
9737437.184040945 185986.07531858777 0.0
6209088.336560289 -1322202.4885505454 0.0
9187878.931619642 -411473.41846905404 0.0
10921383.457593482 484129.75197190605 0.0
6992508.156443591 -92165.51422060894 0.0
9925188.05723388 59958.802691443765 0.0
6315599.267786007 -386.7780170050836 0.0
6420755.849495969 -495370.0279907731 0.0
10705475.477234028 238601.49649596875 0.0
6498707.559014104 294641.3450452088 0.0
6496694.034328446 -303918.2434880012 0.0
8794981.22755483 596756.8603602694 0.0
6804019.525216768 230504.7548086211 0.0
10505795.503715444 -360025.4495607549 0.0
7832566.6706112325 1247617.7171113163 0.0
6800969.248222958 -236561.48851981014 0.0
9916002.686205832 65218.65835978334 0.0
10650709.002296679 491108.32236573903 0.0
10699983.250649877 -352062.4139929592 0.0
7005849.506096569 -88684.47293387225 0.0
6527297.720435116 1286192.2405577374 0.0
8479628.43152492 -416527.4649505659 0.0
6856259.156127917 45963.971538993836 0.0
12121140.405481301 -1991233.5324783558 0.0
7430624.361609613 950254.425251412 0.0
9432369.484705882 454497.63663961535 0.0
10429772.78696126 594372.6684161242 0.0
8824323.851599874 -12208.832742378194 0.0
10911207.594695223 338068.61030377354 0.0
8552745.387190387 -347705.9438706223 0.0
6542883.8261403 551165.1337196489 0.0
8946446.300674137 213530.69105763402 0.0
4440140.467614482 171749.3358670862 0.0
4953800.068007395 1401573.8200504351 0.0
13357516.75659875 -1404097.3426187604 0.0
2809705.111136602 517034.1404690737 0.0
8965589.643200375 3170018.0664739716 0.0
8142219.028136 -3152821.9307578383 0.0
6823579.503293607 -902278.0060702675 0.0
9734410.493380947 -1728961.394049249 0.0
4530986.094488706 -691138.6754021025 0.0
5208336.999337661 -1200817.2207725893 0.0
5597125.644361939 871659.0428104235 0.0
5627461.85606799 2591193.1274647354 0.0
6467077.765077485 527804.9959201195 0.0
13149121.686557291 978593.6496859216 0.0
10653687.049899865 1589063.3331383986 0.0
9987337.148867507 1625411.049883464 0.0
9206942.409197338 -2521302.2920461902 0.0
7469165.706996189 -1302999.3083220576 0.0
4488795.838915828 -785741.0006475243 0.0
4998720.232547939 -1030014.3237371533 0.0
7615704.47953866 -131306.47496533144 0.0
VECTORS principal_stress_2 float
-1423527.5368680507 7737824.007357267 0.0
1151643.4330317175 13147254.266661223 0.0
1748744.1095400574 9932172.865513809 0.0
-199918.0009755867 6040342.083252203 0.0
-1140459.4818954554 13340092.19188549 0.0
519151.48784997565 8336575.037438144 0.0
-1906613.5378715245 10647698.563023461 0.0
686796.0486847222 10061413.616710642 0.0
-719813.798800519 9550194.929608054 0.0
-516755.6864012118 9628016.309715657 0.0
376135.2119184885 6334980.307503486 0.0
492371.53857357247 6703888.350690977 0.0
-493575.24409671954 6705670.1920329435 0.0
848298.4201939718 12558964.274538206 0.0
295977.326693046 9342850.307427257 0.0
805732.4720120465 9932480.299498864 0.0
374686.1937351926 9635817.220168335 0.0
-85325.92066424074 9385451.879351987 0.0
5876.398106609085 8805430.10067327 0.0
-190678.95395237466 9944218.88268073 0.0
572162.1672979792 8014508.840434341 0.0
-688542.6839158963 8093138.542943382 0.0
3865.1758399667333 6953558.101678547 0.0
-32331.19325976368 7151239.021595626 0.0
-982026.080882862 8627531.528478604 0.0
422684.16527583124 10949874.655579116 0.0
162533.40654898723 10799568.637606004 0.0
-185986.07531858634 9737437.184040945 0.0
1322202.4885505456 6209088.336560289 0.0
411473.41846905433 9187878.931619642 0.0
-484129.7519719046 10921383.457593482 0.0
92165.51422060863 6992508.156443591 0.0
-59958.802691443314 9925188.05723388 0.0
386.77801700511935 6315599.267786007 0.0
495370.0279907735 6420755.849495969 0.0
-238601.49649596747 10705475.477234028 0.0
-294641.3450452091 6498707.559014104 0.0
303918.2434880015 6496694.034328446 0.0
-596756.8603602697 8794981.22755483 0.0
-230504.7548086214 6804019.525216768 0.0
360025.44956075464 10505795.503715444 0.0
-1247617.7171113156 7832566.6706112325 0.0
236561.4885198112 6800969.248222958 0.0
-65218.658359783294 9916002.686205832 0.0
-491108.3223657373 10650709.002296679 0.0
352062.41399296006 10699983.250649877 0.0
88684.47293387254 7005849.506096569 0.0
-1286192.2405577374 6527297.720435116 0.0
416527.464950566 8479628.43152492 0.0
-45963.971538993916 6856259.156127917 0.0
1991233.5324783553 12121140.405481301 0.0
-950254.4252514123 7430624.361609612 0.0
-454497.6366396158 9432369.484705882 0.0
-594372.6684161238 10429772.78696126 0.0
12208.832742378168 8824323.851599874 0.0
-338068.6103037732 10911207.594695223 0.0
347705.94387062296 8552745.387190387 0.0
-551165.133719649 6542883.8261403 0.0
-213530.69105763274 8946446.300674137 0.0
-171749.33586708608 4440140.467614482 0.0
-1401573.8200504351 4953800.068007395 0.0
1404097.3426187602 13357516.75659875 0.0
-517034.1404690734 2809705.111136602 0.0
-3170018.0664739716 8965589.643200375 0.0
3152821.9307578383 8142219.028136 0.0
902278.0060702675 6823579.503293607 0.0
1728961.3940492494 9734410.493380947 0.0
691138.6754021026 4530986.094488706 0.0
1200817.22077259 5208336.999337661 0.0
-871659.0428104226 5597125.64436194 0.0
-2591193.1274647354 5627461.856067991 0.0
-527804.9959201186 6467077.765077485 0.0
-978593.64968592 13149121.686557291 0.0
-1589063.3331383981 10653687.049899865 0.0
-1625411.0498834637 9987337.148867507 0.0
2521302.29204619 9206942.409197338 0.0
1302999.3083220576 7469165.706996189 0.0
785741.0006475245 4488795.838915828 0.0
1030014.3237371534 4998720.232547939 0.0
131306.47496533176 7615704.47953866 0.0
POINT_DATA 53
VECTORS displacements float
0.0 0.0 0.0
3.3885115525146325e-05 2.2391130219969353e-06 0.0
3.961863526954144e-05 1.1739861099803852e-06 0.0
7.127689657501052e-05 1.872529051759624e-06 0.0
7.683447483434417e-05 2.9473808795649508e-06 0.0
0.00011606763485848665 7.430728906329595e-06 0.0
0.00011518179872301232 -3.1163248738610124e-06 0.0
7.408607026868757e-05 -1.8797062369337093e-06 0.0
7.045713401728885e-05 -1.368764139318291e-06 0.0
3.9289147018904615e-05 -1.4902574798260259e-06 0.0
3.438161306046155e-05 -2.708922866406981e-06 0.0
0.0 0.0 0.0
1.9842212484223512e-05 4.4417967315179315e-06 0.0
3.507059718392244e-05 1.8865355870284274e-06 0.0
5.541511134681607e-05 1.8681628733795202e-06 0.0
7.557772500494438e-05 2.5115868554522026e-06 0.0
9.181225888504791e-05 4.91654638422454e-06 0.0
0.0001053575620497962 2.401610255672495e-06 0.0
9.062344012127915e-05 -1.424696275726242e-06 0.0
7.31896497210538e-05 -1.4248774290326668e-06 0.0
5.483196477748835e-05 -1.7247951803529786e-06 0.0
3.560357568186478e-05 -2.334404692013701e-06 0.0
1.983851894789568e-05 -4.456346775315941e-06 0.0
0.0 0.0 0.0
4.853875740695428e-05 -2.2098336062615875e-07 0.0
4.101705970422823e-05 -1.0037616398154713e-06 0.0
6.167603276782141e-05 5.550333409908323e-07 0.0
4.575041351132725e-05 -5.3456642153414996e-08 0.0
6.198171979606917e-05 -1.1715777342207918e-07 0.0
5.240678748563488e-05 6.824643374927184e-08 0.0
4.8811629041903904e-05 3.046169107934748e-07 0.0
4.2321057774317005e-05 6.817870902463649e-07 0.0
3.4444129637787644e-05 2.331919994057227e-06 0.0
3.800452504193056e-05 3.013142568088041e-07 0.0
2.82349251206174e-05 1.339145920880603e-06 0.0
3.3141211387309695e-05 -2.3995221741734116e-06 0.0
1.858548807125069e-05 -2.74950473186627e-08 0.0
8.986865105338345e-06 8.165796573283534e-07 0.0
8.951453697532537e-06 -8.393428162912989e-07 0.0
5.508910435630134e-05 5.63709148872489e-07 0.0
5.977372493573399e-05 1.8158069617344916e-07 0.0
6.634232075432749e-05 6.38881563943841e-07 0.0
6.506633424296873e-05 1.709952535948364e-07 0.0
7.087062907012165e-05 2.257192171122548e-07 0.0
6.691277783341657e-05 -2.0118733289297173e-07 0.0
9.813983409629449e-05 1.1291376357281455e-06 0.0
8.27935302787988e-05 7.121866729067544e-07 0.0
9.671842687072696e-05 2.494380270211234e-06 0.0
8.017920606810914e-05 3.3196503194204384e-06 0.0
7.285283736227664e-05 1.6470675536079742e-06 0.0
6.732808182817591e-05 9.835515323224628e-07 0.0
6.398918022423017e-05 1.0765545245686128e-06 0.0
5.544869665016069e-05 -3.6188575379159265e-07 0.0