# vtk DataFile Version 2.0
Really cool data
ASCII
DATASET POLYDATA
POINTS 50 float
0.0 0.0 0
0.125 0.0 0
0.125 0.025 0
0.175 0.025 0
0.175 0.0 0
0.3 0.0 0
0.3 0.1 0
0.175 0.1 0
0.175 0.07500000000000001 0
0.125 0.07500000000000001 0
0.125 0.1 0
0.0 0.1 0
0.06250000013078053 0.0 0
0.125 0.01250000001946666 0
0.1500000000542101 0.025 0
0.175 0.01249999996954492 0
0.2375000000379471 0.0 0
0.3 0.05000000007786663 0
0.2374999999024218 0.09999999999999999 0
0.175 0.08749999992410586 0
0.1499999998970008 0.07500000000000002 0
0.125 0.08749999998373698 0
0.06249999984482352 0.1 0
0.0 0.05000000007786663 0
0.1368030376589693 0.05881183609165548 0
0.117775623603241 0.06013038045187373 0
0.162500000027105 0.041237976310672 0
0.107309198575727 0.08007003580073291 0
0.19212308841714 0.01780898906300205 0
0.1901864428630649 0.07906464689515667 0
0.1094436020031466 0.01874551931480652 0
0.1291338851563814 0.04361389724778988 0
0.1114151539582876 0.04074826126195277 0
0.1624999999485004 0.06043297861285827 0
0.1787552186679302 0.06017424107710374 0
0.1459442698801169 0.044214050543324 0
0.08315066519904095 0.03531547250623295 0
0.08792340551106274 0.06122065477279754 0
0.04632429568687593 0.05307658962797577 0
0.172304892364689 0.04902546201312089 0
0.1850949657786914 0.04563198790008897 0
0.1965712954394372 0.05628532213281995 0
0.2087061817377232 0.03693437174515411 0
0.253205755539793 0.04383466385996593 0
0.2266612590318197 0.06518650077867166 0
0.1762118450318149 0.03854480335931212 0
0.1861593669885893 0.03182859057267874 0
0.02720607395441411 0.0257691474264606 0
0.1502126267551182 0.05641628411908355 0
0.2685302890076256 0.07336950662279432 0
POLYGONS 74 296
3 5 17 43
3 8 20 33
3 28 16 42
3 2 31 32
3 20 9 24
3 30 2 32
3 18 29 44
3 25 27 37
3 24 9 25
3 16 5 43
3 8 33 34
3 27 22 37
3 12 36 38
3 42 43 44
3 33 26 39
3 26 33 48
3 35 26 48
3 11 23 38
3 22 11 38
3 14 26 35
3 44 43 49
3 32 25 37
3 42 16 43
3 6 18 49
3 29 34 41
3 24 31 35
3 24 25 31
3 12 38 47
3 0 12 47
3 7 19 29
3 1 13 30
3 21 10 27
3 15 4 28
3 18 44 49
3 31 25 32
3 28 42 46
3 37 22 38
3 30 32 36
3 43 17 49
3 20 24 48
3 34 33 39
3 33 20 48
3 17 6 49
3 23 0 47
3 39 26 45
3 24 35 48
3 34 39 40
3 40 39 45
3 38 23 47
3 3 15 28
3 9 21 27
3 13 2 30
3 19 8 29
3 41 42 44
3 36 32 37
3 45 3 46
3 42 40 46
3 34 40 41
3 41 40 42
3 40 45 46
3 3 28 46
3 4 16 28
3 10 22 27
3 12 1 30
3 2 14 31
3 14 3 26
3 26 3 45
3 18 7 29
3 29 8 34
3 25 9 27
3 12 30 36
3 31 14 35
3 29 41 44
3 36 37 38
CELL_DATA 74
SCALARS mises double 1
LOOKUP_TABLE default
5894472.396526814 15312170.030006563 5342599.887581179 9545174.908059895 15029573.829975862 9395092.524357652 6055429.869837687 8854279.321552863 10378296.92256487 7810918.035147365 11054699.549426828 5754462.004892052 7371571.5300093675 6808853.954919103 10274872.311137145 11854622.812491816 11982453.196412306 6097563.3264953215 6680799.654484789 12174507.84461555 6688162.021756701 9053027.199467473 7051069.783639116 8538886.999164544 9902419.4750936 11474601.767705895 10740453.772577258 6902605.47000437 6404767.991334902 2085801.1160582316 2233787.388340399 2512617.943470487 2706883.129350026 6731439.260106092 10438674.450374752 8636041.157508397 7495428.418737482 7946257.431162758 5008927.621043047 12631651.355784127 10993022.867504602 12416096.817604128 7264722.826422401 5834562.646974258 11389510.725534247 12497672.323840208 10360483.323483886 9542744.436404739 6251258.155611792 5364584.988408718 6235326.895441649 5836447.674982021 6976800.963798612 8531759.19755362 9113065.894947222 8562428.109323774 8071354.04019503 8925633.02461594 9465392.405673636 10371384.61024746 8707491.732192427 4280270.0548245525 3963849.1981162466 3975134.127774802 14375887.31363068 15159407.185309237 10509021.805448597 4268799.803923631 8837971.642938115 8624996.68183524 5694222.881449815 11629633.076420862 7081219.281014312 7723036.915601206
VECTORS principal_stress_1 float
5731447.147302975 -1269030.9629884614 0.0
15937557.930119373 1480317.511905983 0.0
5369631.5756673375 -853252.1179195426 0.0
10086462.218828002 1820008.8994407307 0.0
15689007.551131373 -1504627.702942224 0.0
9660143.34718897 1418238.5427443879 0.0
6012775.48591316 489104.1914759124 0.0
9037294.901653495 -1722185.09308046 0.0
11288441.78823124 -2352394.1048976574 0.0
7623201.749593124 -588621.2654626634 0.0
12031360.348115375 2509388.4123445572 0.0
5510518.8144521415 -378652.95195702795 0.0
7123575.551576498 125384.47888511918 0.0
6530843.771209766 73491.98436285778 0.0
11174258.730798453 134730.9054049786 0.0
12899456.989907239 288228.3819783531 0.0
12609362.450993054 -374942.18638794444 0.0
6653628.108186566 -119195.16160516952 0.0
6685850.139420581 -551768.1725835658 0.0
12536895.486014 -278493.81514644064 0.0
6814313.851310006 392628.7746590241 0.0
9025723.629028885 223694.8163487144 0.0
6874292.388706245 -649281.9299919617 0.0
8143259.497026012 752965.2875189807 0.0
10221002.29141945 1748513.1135705484 0.0
12339136.145687992 45133.834321534414 0.0
11512433.766544886 305688.5398532137 0.0
6748859.061461625 380293.0108648105 0.0
6596201.04870219 475353.6457335582 0.0
1607177.9923612573 161405.8474994608 0.0
1689239.4738304086 59503.04476635374 0.0
2139178.4353764467 -199919.38506440842 0.0
2098948.7124269917 -50312.7651220743 0.0
6736273.331180642 464201.0259260816 0.0
10763035.955961544 -496163.91832517064 0.0
9005348.195125464 -1988478.757349482 0.0
7298309.542435145 -83343.6578769961 0.0
8118960.051871514 1783599.4198723943 0.0
5011798.531973703 718570.6869688686 0.0
12917687.747042214 -453173.757927155 0.0
11730102.890298516 70554.93607381998 0.0
12685434.030564137 284740.97081058455 0.0
6878354.070732574 1253364.5090305416 0.0
6370639.237641688 312014.1739759914 0.0
12172474.779555742 -309753.3294364331 0.0
13115858.998310922 -291396.4613167249 0.0
10894917.717321238 550478.7869704263 0.0
10104774.27549111 -861072.3094735014 0.0
6452801.893441041 51939.14505502077 0.0
7427568.61119727 -4576737.007526809 0.0
8033861.078384428 -4452114.740547617 0.0
7813077.018943046 4596152.9295959 0.0
8506959.442870313 4256047.336593713 0.0
8221707.30116408 -100553.23760366114 0.0
8695646.978785306 -93271.33845180852 0.0
9369114.419630444 -2100358.9181930423 0.0
8324807.789861332 -1033600.8545458468 0.0
9201911.945654921 -6103.000643399251 0.0
9316407.658407822 206476.16399890298 0.0
10834789.86172729 -1107011.505784043 0.0
9170075.156270253 -1728564.481275214 0.0
4933451.982795599 -1800660.6761024368 0.0
4566360.772091981 -1676934.5645283263 0.0
4577463.160731425 1681999.4851569124 0.0
15211549.751982482 1956830.1990674175 0.0
15902702.623824785 -1445532.841660242 0.0
11516294.51279848 -2424958.05181855 0.0
4966928.916929225 1936076.233292155 0.0
9381655.548814498 1565639.40154077 0.0
9040941.463000316 -1320194.0013588872 0.0
5456025.27527648 271961.2058841704 0.0
12125300.008062158 478212.4873267404 0.0
7218515.3668321725 1555693.7536482657 0.0
7091226.701263436 76712.4466762044 0.0
VECTORS principal_stress_2 float
1269030.962988462 5731447.147302975 0.0
-1480317.511905983 15937557.930119373 0.0
853252.1179195427 5369631.5756673375 0.0
-1820008.8994407302 10086462.218828002 0.0
1504627.7029422242 15689007.551131373 0.0
-1418238.5427443879 9660143.34718897 0.0
-489104.1914759125 6012775.48591316 0.0
1722185.0930804594 9037294.901653495 0.0
2352394.1048976574 11288441.78823124 0.0
588621.2654626643 7623201.749593124 0.0
-2509388.412344557 12031360.348115375 0.0
378652.9519570279 5510518.8144521415 0.0
-125384.47888511926 7123575.551576498 0.0
-73491.98436285763 6530843.771209766 0.0
-134730.90540497715 11174258.730798453 0.0
-288228.38197835366 12899456.989907239 0.0
374942.1863879462 12609362.450993054 0.0
119195.16160516924 6653628.108186566 0.0
551768.1725835662 6685850.139420581 0.0
278493.8151464402 12536895.486014 0.0
-392628.774659023 6814313.851310006 0.0
-223694.81634871472 9025723.629028885 0.0
649281.9299919624 6874292.388706245 0.0
-752965.2875189799 8143259.497026012 0.0
-1748513.1135705472 10221002.29141945 0.0
-45133.83432153286 12339136.145687992 0.0
-305688.53985321376 11512433.766544886 0.0
-380293.01086480956 6748859.061461625 0.0
-475353.6457335572 6596201.04870219 0.0
-161405.84749946077 1607177.9923612573 0.0
-59503.04476635353 1689239.4738304086 0.0
199919.38506440865 2139178.4353764467 0.0
50312.765122074554 2098948.7124269917 0.0
-464201.02592608106 6736273.331180642 0.0
496163.91832517064 10763035.955961544 0.0
1988478.7573494825 9005348.195125464 0.0
83343.65787699715 7298309.542435145 0.0
-1783599.4198723948 8118960.051871514 0.0
-718570.6869688686 5011798.531973703 0.0
453173.75792715594 12917687.747042214 0.0
-70554.9360738202 11730102.890298516 0.0
-284740.9708105842 12685434.030564137 0.0
-1253364.5090305407 6878354.070732575 0.0
-312014.1739759912 6370639.237641688 0.0
309753.32943643513 12172474.779555742 0.0
291396.46131672454 13115858.998310922 0.0
-550478.7869704264 10894917.717321238 0.0
861072.3094735029 10104774.27549111 0.0
-51939.14505502093 6452801.893441041 0.0
4576737.007526809 7427568.61119727 0.0
4452114.740547618 8033861.078384427 0.0
-4596152.929595899 7813077.018943046 0.0
-4256047.336593712 8506959.442870315 0.0
100553.2376036609 8221707.30116408 0.0
93271.33845180878 8695646.978785306 0.0
2100358.9181930423 9369114.419630444 0.0
1033600.8545458468 8324807.789861332 0.0
6103.000643400539 9201911.945654921 0.0
-206476.1639989024 9316407.658407822 0.0
1107011.5057840443 10834789.861727288 0.0
1728564.4812752136 9170075.156270253 0.0
1800660.6761024368 4933451.982795599 0.0
1676934.5645283265 4566360.772091981 0.0
-1681999.4851569121 4577463.160731425 0.0
-1956830.199067417 15211549.751982482 0.0
1445532.8416602437 15902702.623824785 0.0
2424958.0518185515 11516294.51279848 0.0
-1936076.2332921543 4966928.916929225 0.0
-1565639.401540769 9381655.548814498 0.0
1320194.0013588879 9040941.463000316 0.0
-271961.20588416955 5456025.27527648 0.0
-478212.4873267383 12125300.008062158 0.0
-1555693.7536482653 7218515.3668321725 0.0
-76712.44667620347 7091226.701263436 0.0
POINT_DATA 50
VECTORS displacements float
0.0 0.0 0.0
3.206053128378136e-05 1.4978577286501766e-06 0.0
4.15642403783042e-05 7.099314506737665e-07 0.0
7.803091175676295e-05 -5.731587313606506e-07 0.0
8.705246896482054e-05 2.9793932925678824e-07 0.0
0.00012361334852396239 8.965284783305815e-07 0.0
0.00012675920665727124 -8.880165840562753e-06 0.0
8.847991760857778e-05 -3.1694047813497195e-06 0.0
7.904413251009148e-05 -2.077989802563876e-06 0.0
4.177260629642847e-05 -1.438367478143924e-06 0.0
3.2517884624982134e-05 -2.3116844780807574e-06 0.0
0.0 0.0 0.0
1.9553053396694558e-05 4.5014620092196625e-06 0.0
3.3640891170096156e-05 7.866047057784515e-07 0.0
5.933982675735963e-05 1.1691375077016528e-06 0.0
8.575826935630016e-05 -5.297740862154122e-07 0.0
0.00010053685797736583 1.840836010712476e-06 0.0
0.00011564392811904569 -3.298492066557779e-06 0.0
0.00010192606880590744 -5.74959127191624e-06 0.0
8.66957050762414e-05 -2.5153160778890048e-06 0.0
6.024878053725558e-05 -2.90260501093516e-06 0.0
3.413156406670292e-05 -1.6660318494158403e-06 0.0
2.0041694367511277e-05 -4.853678388030766e-06 0.0
0.0 0.0 0.0
5.214186767545302e-05 -6.917877598539195e-07 0.0
4.194023048523231e-05 -1.206745201451599e-06 0.0
6.735094344800429e-05 -1.0147261443224192e-06 0.0
3.317368351243676e-05 -3.032264011177065e-06 0.0
8.709324596685527e-05 7.467434241417942e-07 0.0
8.676589542976189e-05 -3.821802635352155e-06 0.0
3.304212643560951e-05 2.2376409076539647e-06 0.0
4.7956561887431195e-05 -4.8522324206082e-07 0.0
3.89465101879922e-05 4.4113943619278894e-07 0.0
6.781600606611976e-05 -1.1091740498831618e-06 0.0
7.670975607394937e-05 -1.8175514929563942e-06 0.0
5.759881088269599e-05 -1.8496980127193383e-07 0.0
2.6907724037153334e-05 1.4838237856740939e-06 0.0
2.8986308026258383e-05 -1.7246792759974252e-06 0.0
1.422438181203361e-05 -5.098035997331648e-07 0.0
7.260576900866454e-05 -1.1672510771942036e-06 0.0
7.891461940934787e-05 -1.1872585615144374e-06 0.0
8.434112141280567e-05 -2.28532056810899e-06 0.0
8.934649398151114e-05 -2.690012312142433e-07 0.0
0.00010385196801113709 -2.462833799403392e-06 0.0
9.634032241416817e-05 -3.3979308918692456e-06 0.0
7.524955524269042e-05 -7.923626799557045e-07 0.0
8.114388304818396e-05 -3.402733761590743e-07 0.0
7.993600358745586e-06 7.84886299446195e-07 0.0
6.039231735201361e-05 -1.1219786234843509e-06 0.0
0.00011036580479207271 -4.1836305289443e-06 0.0