# vtk DataFile Version 2.0
Really cool data
ASCII
DATASET POLYDATA
POINTS 56 float
0.0 0.0 0
0.125 0.0 0
0.125 0.02223333333333333 0
0.175 0.02223333333333333 0
0.175 0.0 0
0.3 0.0 0
0.3 0.1 0
0.175 0.1 0
0.175 0.07776666666666668 0
0.125 0.07776666666666668 0
0.125 0.1 0
0.0 0.1 0
0.06250000013078053 0.0 0
0.125 0.01111666668594669 0
0.1500000000542101 0.02223333333333333 0
0.175 0.0111166666412984 0
0.2375000000379471 0.0 0
0.3 0.05000000007786663 0
0.2374999999024218 0.09999999999999999 0
0.175 0.0888833332628602 0
0.1499999998970008 0.07776666666666668 0
0.125 0.0888833333116493 0
0.06249999984482352 0.1 0
0.0 0.05000000007786663 0
0.1368447886576218 0.06160355417868172 0
0.1201157246091494 0.06301786850738869 0
0.1617541226723172 0.03879540766500157 0
0.1290465570702908 0.04771913136022382 0
0.1638979236194238 0.06282558458255338 0
0.1060640559549025 0.08069815163902253 0
0.1932495515543665 0.0185072535544231 0
0.1910169297254607 0.08306917620821623 0
0.1085612553711593 0.01655507959764235 0
0.1130221957920125 0.04774476965452207 0
0.1463315827377894 0.04596414700307056 0
0.1375000000271051 0.0325208613641603 0
0.1177411565232675 0.0328885231947243 0
0.1589528735778897 0.05119663080943723 0
0.1707326865674015 0.05060899091230386 0
0.1822784442176337 0.06585981313254913 0
0.1866166880557941 0.0515398744359487 0
0.1788827293714999 0.03499046153402788 0
0.1664092130245068 0.02956313396642403 0
0.03406050502219913 0.03132563124956628 0
0.06954484198844459 0.04281403790616306 0
0.09557510249835188 0.03366813019857926 0
0.03735405574880097 0.06466131971806781 0
0.07757816040188777 0.07094364634281938 0
0.0984398663913597 0.05805974931675145 0
0.2659005425300999 0.0686256782070888 0
0.229371435192288 0.05780804400870942 0
0.2040298349566311 0.06536477912980342 0
0.2626312775557894 0.03532034694886795 0
0.219685917284661 0.02752750465103049 0
0.2019726927358734 0.0426229862189905 0
0.15061501716591 0.05973305942480193 0
POLYGONS 86 344
3 30 16 53
3 29 22 47
3 20 9 24
3 8 28 39
3 31 39 51
3 14 26 34
3 24 9 25
3 2 14 35
3 51 40 54
3 39 40 51
3 32 36 45
3 14 34 35
3 45 33 48
3 40 38 41
3 50 51 54
3 32 2 36
3 36 33 45
3 25 29 48
3 24 27 34
3 28 38 39
3 24 25 27
3 41 30 54
3 34 26 37
3 38 26 41
3 30 53 54
3 22 11 46
3 16 5 52
3 26 14 42
3 6 18 49
3 0 12 43
3 34 27 35
3 2 35 36
3 44 45 48
3 29 47 48
3 37 26 38
3 28 37 38
3 40 41 54
3 11 23 46
3 5 17 52
3 53 50 54
3 27 25 33
3 7 19 31
3 1 13 32
3 15 4 30
3 21 10 29
3 35 27 36
3 46 44 47
3 52 50 53
3 28 20 55
3 47 44 48
3 20 24 55
3 50 18 51
3 44 12 45
3 3 41 42
3 24 34 55
3 39 38 40
3 23 0 43
3 17 6 49
3 41 26 42
3 49 50 52
3 43 44 46
3 27 33 36
3 22 46 47
3 16 52 53
3 33 25 48
3 49 18 50
3 43 12 44
3 3 15 30
3 9 21 29
3 13 2 32
3 19 8 31
3 34 37 55
3 17 49 52
3 23 43 46
3 37 28 55
3 14 3 42
3 4 16 30
3 10 22 29
3 12 1 32
3 3 30 41
3 18 7 31
3 8 20 28
3 31 8 39
3 25 9 29
3 12 32 45
3 18 31 51
CELL_DATA 86
SCALARS mises double 1
LOOKUP_TABLE default
5740435.920275431 5925489.374618523 13674356.638522029 9369409.446933998 8363538.324490691 11500577.346698424 9660521.175647061 14163923.355637798 9200724.577195307 8306312.250732128 8534730.25395555 12024953.367767945 9519469.711396443 9485759.313447693 7290716.428968715 7944465.345808991 8461548.010913406 9120811.74417642 9803911.586766563 10072709.614009487 10025235.704079092 9238883.130369624 10809390.562086407 10029491.751709599 6369435.259964088 6567203.708745199 8274489.590418625 12930897.576877857 8422004.93921415 6502263.0508175315 10050215.924029935 10340621.909700405 7838848.118825737 6807418.257677198 9702556.090219218 9782812.039732046 8120390.285101895 5983872.84120651 6463464.668377236 8077988.85383901 9549774.561999043 2701156.223906975 2713493.0460497485 2941098.632617273 3038254.2777769524 10297974.948020702 7295830.496390991 6446096.589485439 11324508.57277126 8400549.260997262 11158320.039917089 7083171.317086158 7420257.91979704 11454025.694361374 10920141.862431224 9337028.966224162 5988767.262129264 6861827.761363457 9720676.361540627 6526741.190128087 7004066.710581145 9571381.565920576 7170122.066348618 6510761.478100619 8341038.967125878 6490926.540754377 7233263.789719127 6378555.331953281 6725153.828174852 5493519.897648106 5855035.976263531 10536129.790240567 4361601.503610395 6236054.771304746 10914744.057510434 14285202.785180146 4450438.321911775 4096878.5058773383 4214191.068009327 7609623.8637748035 4546124.146773746 13778290.927543964 8180171.355482314 7784388.54155834 5145337.353304137 5295344.385095791
VECTORS principal_stress_1 float
5775756.821828306 -544624.5719046919 0.0
5734204.298478095 -88866.36337877436 0.0
14244030.653278546 -1380033.8298704384 0.0
10193359.021668758 2312831.6141877305 0.0
8732768.80321559 1778156.4858404954 0.0
11859214.326696325 -174921.3367418669 0.0
10453002.088300688 -2108525.9171043336 0.0
14581711.765263224 1414072.106352389 0.0
9119203.237643942 233920.83910640754 0.0
8486480.146277806 431973.5884604708 0.0
8826903.046436543 1677984.342955594 0.0
12576383.579826314 653118.5974244515 0.0
9248739.090453835 151686.779625532 0.0
9973868.420419801 -757105.0451818542 0.0
6970825.962503725 412437.0740335232 0.0
8328380.756871435 1606880.833840176 0.0
8537189.637612838 332893.0039939396 0.0
9198274.157239348 -1326362.7281364736 0.0
10600193.244407574 -419723.4084618774 0.0
10716694.670204414 289189.7791823273 0.0
10656732.993592674 -61001.50082501583 0.0
9447551.837878553 -1466159.9260789833 0.0
11635730.461533472 -408496.7887424032 0.0
10683759.947680313 -348630.1355621707 0.0
6298758.486841319 -1047953.4959865747 0.0
6692600.668128902 -509158.0980636439 0.0
8026070.125612065 -640393.7570737429 0.0
13606622.413272576 -917120.1170404926 0.0
8109137.856856508 703628.7143693141 0.0
6651914.4450917775 519645.41253404587 0.0
10797202.364222655 655270.2502038986 0.0
11374615.649153413 2971522.1842728863 0.0
7331326.096584015 352758.4323820353 0.0
6633556.735491906 -989185.8143635361 0.0
10446417.323482731 -438759.7914087819 0.0
10595806.887845572 656085.7748974866 0.0
8354962.130275645 -221304.75594009404 0.0
6532234.222175786 -267287.80344290915 0.0
6158818.194835844 -1309768.7885315767 0.0
8003931.125224405 -315589.96172539494 0.0
9918478.505735619 -615423.9839473779 0.0
2172010.109795593 36556.15230732215 0.0
2232962.358960411 47019.3699065398 0.0
2596192.7660614634 -206512.92612939834 0.0
2775275.696346936 -281249.5946310449 0.0
10904618.068885552 367519.03048435634 0.0
6894254.992857417 -214130.93512985084 0.0
6273322.215142861 -287065.17973569303 0.0
11658865.537594916 403075.9161667021 0.0
8048436.857242239 -147893.26373987514 0.0
11444479.258114982 -425305.3145798515 0.0
7055875.958892788 473496.33591780707 0.0
7132512.696226477 132936.94390577928 0.0
12460281.94789461 -2781699.8990670787 0.0
11670392.884946734 -376215.4795279493 0.0
9726632.222579 851811.7659832017 0.0
6538212.433435566 292060.46961667587 0.0
6492093.845545073 1297201.2345058364 0.0
10455591.529408015 -960340.0812971228 0.0
6742461.233185336 96514.47409612617 0.0
7128017.48475046 58044.161989695305 0.0
9930350.156860765 905436.2101954875 0.0
6898180.131381569 -134915.6267339983 0.0
6437805.959545048 -558489.9971778156 0.0
8462998.272816408 -123236.36408730193 0.0
6412968.782993032 452817.3720873479 0.0
6904941.696021477 214627.41961350528 0.0
7815834.957735968 -3994963.5328249745 0.0
8106159.077502906 -4001006.8330762996 0.0
7217637.914893246 4138240.0043494087 0.0
7506406.423083026 4151344.5198759474 0.0
11118676.232884813 156290.5184448336 0.0
4353467.149903234 179318.04528051245 0.0
6293104.014621865 -29968.680313071916 0.0
11747528.857263146 649722.7504282309 0.0
14709422.324414099 -1809221.0884802686 0.0
5025574.663339818 -1657944.7480630882 0.0
4596459.525802214 -1451428.2822105899 0.0
4735829.584864458 1512757.6117912193 0.0
8081301.642113907 -1751819.2694896127 0.0
5127425.1659406405 1682540.1341050402 0.0
14368907.985744083 1439021.191421113 0.0
8650759.079502592 1583727.0222529897 0.0
8200159.698137202 -1329128.8048058136 0.0
5102174.693608663 660865.7171125155 0.0
5426599.45608323 955844.4107114096 0.0
VECTORS principal_stress_2 float
544624.5719046916 5775756.821828306 0.0
88866.3633787749 5734204.298478095 0.0
1380033.8298704403 14244030.653278546 0.0
-2312831.6141877305 10193359.021668758 0.0
-1778156.4858404945 8732768.80321559 0.0
174921.33674186884 11859214.326696325 0.0
2108525.917104335 10453002.088300688 0.0
-1414072.1063523886 14581711.765263224 0.0
-233920.8391064073 9119203.237643942 0.0
-431973.5884604699 8486480.146277806 0.0
-1677984.3429555933 8826903.046436543 0.0
-653118.5974244514 12576383.579826314 0.0
-151686.7796255311 9248739.090453835 0.0
757105.045181855 9973868.420419801 0.0
-412437.0740335221 6970825.962503726 0.0
-1606880.8338401758 8328380.756871435 0.0
-332893.00399393984 8537189.637612838 0.0
1326362.7281364733 9198274.157239348 0.0
419723.4084618787 10600193.244407574 0.0
-289189.7791823271 10716694.670204414 0.0
61001.500825015544 10656732.993592674 0.0
1466159.9260789843 9447551.837878553 0.0
408496.78874240286 11635730.461533472 0.0
348630.1355621724 10683759.947680313 0.0
1047953.495986575 6298758.486841319 0.0
509158.09806364443 6692600.668128902 0.0
640393.7570737435 8026070.125612065 0.0
917120.1170404934 13606622.413272576 0.0
-703628.7143693144 8109137.856856508 0.0
-519645.4125340457 6651914.4450917775 0.0
-655270.250203899 10797202.364222655 0.0
-2971522.184272886 11374615.649153413 0.0
-352758.43238203425 7331326.096584015 0.0
989185.8143635365 6633556.735491906 0.0
438759.79140878236 10446417.323482731 0.0
-656085.7748974857 10595806.887845572 0.0
221304.75594009383 8354962.130275645 0.0
267287.8034429102 6532234.222175786 0.0
1309768.7885315777 6158818.194835844 0.0
315589.96172539575 8003931.125224405 0.0
615423.9839473785 9918478.505735619 0.0
-36556.152307321856 2172010.109795593 0.0
-47019.369906539905 2232962.358960411 0.0
206512.92612939875 2596192.7660614634 0.0
281249.59463104483 2775275.696346936 0.0
-367519.0304843559 10904618.068885552 0.0
214130.93512985058 6894254.992857417 0.0
287065.17973569286 6273322.215142861 0.0
-403075.91616670246 11658865.537594916 0.0
147893.26373987622 8048436.857242239 0.0
425305.3145798513 11444479.258114982 0.0
-473496.33591780637 7055875.958892789 0.0
-132936.94390577925 7132512.696226477 0.0
2781699.8990670783 12460281.94789461 0.0
376215.47952795133 11670392.884946732 0.0
-851811.7659832003 9726632.222579 0.0
-292060.46961667604 6538212.433435566 0.0
-1297201.2345058355 6492093.845545073 0.0
960340.0812971231 10455591.529408015 0.0
-96514.4740961259 6742461.233185336 0.0
-58044.16198969469 7128017.48475046 0.0
-905436.210195487 9930350.156860765 0.0
134915.62673399848 6898180.131381569 0.0
558489.9971778153 6437805.959545048 0.0
123236.36408730289 8462998.272816408 0.0
-452817.3720873471 6412968.782993032 0.0
-214627.4196135045 6904941.696021477 0.0
3994963.532824975 7815834.957735968 0.0
4001006.8330763 8106159.077502905 0.0
-4138240.004349407 7217637.914893246 0.0
-4151344.5198759474 7506406.423083026 0.0
-156290.5184448325 11118676.232884813 0.0
-179318.0452805122 4353467.149903234 0.0
29968.680313071683 6293104.014621865 0.0
-649722.7504282302 11747528.857263146 0.0
1809221.0884802686 14709422.324414099 0.0
1657944.7480630882 5025574.663339818 0.0
1451428.28221059 4596459.525802213 0.0
-1512757.611791219 4735829.584864458 0.0
1751819.2694896127 8081301.642113907 0.0
-1682540.13410504 5127425.1659406405 0.0
-1439021.1914211116 14368907.985744083 0.0
-1583727.022252988 8650759.079502594 0.0
1329128.8048058148 8200159.698137202 0.0
-660865.717112515 5102174.693608663 0.0
-955844.4107114087 5426599.45608323 0.0
POINT_DATA 56
VECTORS displacements float
0.0 0.0 0.0
3.2960246648302906e-05 1.9989889863258484e-06 0.0
4.0540006950953534e-05 1.1270779001551752e-06 0.0
7.520882925889753e-05 1.5702084187734026e-06 0.0
8.282738740075884e-05 2.612425462382505e-06 0.0
0.00012111908989166024 7.307601026181452e-06 0.0
0.00012009289325946031 -3.108086759454145e-06 0.0
8.120010277281273e-05 -1.4562231182741218e-06 0.0
7.41777146389431e-05 -4.5861123879803314e-07 0.0
4.046317672925552e-05 -1.0405032496038537e-06 0.0
3.274312532219981e-05 -2.0849614365328543e-06 0.0
0.0 0.0 0.0
1.9768894598477102e-05 4.607016413378892e-06 0.0
3.408914554453037e-05 1.3391267135415031e-06 0.0
5.7813265119730135e-05 1.9983221424492634e-06 0.0
8.15309452094154e-05 2.006751596546779e-06 0.0
9.677150878360743e-05 5.007992275314285e-06 0.0
0.00011036198763298765 2.2937646432905367e-06 0.0
9.543818489494155e-05 -1.9739919536184937e-06 0.0
8.039884359372452e-05 -7.68066324173289e-07 0.0
5.7252450155595695e-05 -1.7864232873722598e-06 0.0
3.412857664511499e-05 -1.5218439910299896e-06 0.0
1.9923066694640237e-05 -4.7135326685970305e-06 0.0
0.0 0.0 0.0
5.0324411445211595e-05 -3.591989749162314e-08 0.0
4.191286170148438e-05 -7.852831678486207e-07 0.0
6.437900055833168e-05 5.221190336045434e-07 0.0
4.7101163229039695e-05 1.1732557726620406e-07 0.0
6.515641831373086e-05 1.9749809859421476e-07 0.0
3.254846716596803e-05 -2.7382589689900125e-06 0.0
8.304438486162155e-05 3.192890951914732e-06 0.0
8.17833115361079e-05 -1.468497786012341e-06 0.0
3.2752730315754466e-05 2.564983454094254e-06 0.0
3.9586220241496275e-05 1.2155529465472392e-07 0.0
5.567633312287662e-05 2.0861345017681988e-07 0.0
5.041937404627023e-05 4.923438150051499e-07 0.0
4.034274359857959e-05 1.0458321311236585e-06 0.0
6.22417482770577e-05 2.340739763393487e-07 0.0
6.799868356173193e-05 4.832615531467846e-07 0.0
7.451513674500044e-05 -2.526102384343002e-07 0.0
7.536018698721541e-05 6.051196227378596e-07 0.0
7.321139721043399e-05 1.3035316311338104e-06 0.0
6.788419680854902e-05 9.222676168776612e-07 0.0
1.0272041599645204e-05 9.195343752805468e-07 0.0
2.2298060766576977e-05 6.471625908859775e-07 0.0
3.134303685173562e-05 1.8985583066740445e-06 0.0
1.1256111271564134e-05 -9.227063681054722e-07 0.0
2.483010896260396e-05 -2.401443948443689e-06 0.0
3.332207934009238e-05 -9.113959220460378e-07 0.0
0.00010330852862656881 9.396366742958368e-07 0.0
9.169561199958798e-05 7.965881186055572e-07 0.0
8.327434808190555e-05 -5.594632232387873e-07 0.0
0.0001024717177634429 2.3173755518702586e-06 0.0
8.961524533381482e-05 3.1857022045166556e-06 0.0
8.195084049171988e-05 1.5978535819689304e-06 0.0
5.784626621401448e-05 -3.265485136663714e-07 0.0