# vtk DataFile Version 2.0
Really cool data
ASCII
DATASET POLYDATA
POINTS 57 float
0.0 0.0 0
0.125 0.0 0
0.125 0.01116666666666667 0
0.175 0.01116666666666667 0
0.175 0.0 0
0.3 0.0 0
0.3 0.1 0
0.175 0.1 0
0.175 0.08883333333333333 0
0.125 0.08883333333333333 0
0.125 0.1 0
0.0 0.1 0
0.06250000013078053 0.0 0
0.125 0.00558333334721605 0
0.1500000000542101 0.01116666666666667 0
0.175 0.005583333317073272 0
0.2375000000379471 0.0 0
0.3 0.05000000007786663 0
0.2374999999024218 0.09999999999999999 0
0.175 0.09441666662871959 0
0.1499999998970008 0.08883333333333333 0
0.125 0.0944166666341406 0
0.06249999984482352 0.1 0
0.0 0.05000000007786663 0
0.1368823539933165 0.0725376655154331 0
0.1226650762907833 0.07200549564435792 0
0.129428001296038 0.05747519868226659 0
0.1456986145673974 0.05675563259934666 0
0.1627111827571348 0.02698635339179713 0
0.1379078083237168 0.04267514762927078 0
0.1199492128729291 0.04267282821540144 0
0.1625227012369322 0.07341966826276371 0
0.1108264226582331 0.08390755353747249 0
0.1547462905338643 0.04184176584786434 0
0.1300366607379908 0.02770030827034344 0
0.1123316379986985 0.01877634821046854 0
0.09097373877714361 0.03943158237093541 0
0.05080781811829253 0.05135964347421221 0
0.1106615255430028 0.0609297633738751 0
0.08515390098829911 0.06712570855129904 0
0.1470803884813834 0.03007404836118847 0
0.1709808403904142 0.0406349426178172 0
0.1622433837357325 0.05721049835018514 0
0.1791936899508262 0.05289327037613516 0
0.1736745879296222 0.06760480533060279 0
0.1499999999438432 0.06998485726380599 0
0.02832695449077902 0.0753399108880197 0
0.2651916538029865 0.0677395672954337 0
0.2262429391179799 0.05389742390362863 0
0.1949385325341341 0.0721904249149055 0
0.1992486724714359 0.04540836156741106 0
0.2610706526934826 0.03423122210691102 0
0.02832695456226827 0.02533991088801971 0
0.2179730330900281 0.02404587291229484 0
0.1888833223280448 0.02254047690958219 0
0.1766742205089605 0.02817238853582079 0
0.1837960371125856 0.03838806374189257 0
POLYGONS 88 352
3 28 3 55
3 12 35 36
3 48 18 49
3 42 31 45
3 34 14 40
3 20 9 24
3 4 16 53
3 24 9 25
3 9 21 32
3 27 42 45
3 21 10 32
3 25 32 38
3 48 49 50
3 12 36 37
3 3 54 55
3 33 28 41
3 37 36 39
3 41 28 55
3 27 33 42
3 33 41 42
3 28 33 40
3 32 22 39
3 22 11 46
3 0 12 52
3 2 34 35
3 31 42 44
3 24 25 26
3 29 34 40
3 24 26 27
3 16 5 51
3 27 26 29
3 33 29 40
3 14 28 40
3 27 29 33
3 6 18 47
3 22 37 39
3 31 20 45
3 5 17 51
3 29 30 34
3 42 41 43
3 29 26 30
3 37 22 46
3 37 23 52
3 26 25 38
3 23 37 46
3 25 9 32
3 20 24 45
3 41 55 56
3 23 0 52
3 11 23 46
3 12 37 52
3 51 48 53
3 47 48 51
3 24 27 45
3 34 30 35
3 17 6 47
3 38 32 39
3 47 18 48
3 30 26 38
3 43 41 56
3 54 50 56
3 53 50 54
3 49 43 50
3 42 43 44
3 44 43 49
3 48 50 53
3 50 43 56
3 16 51 53
3 17 47 51
3 35 30 36
3 55 54 56
3 36 30 38
3 36 38 39
3 10 22 32
3 12 1 35
3 1 13 35
3 13 2 35
3 2 14 34
3 14 3 28
3 3 15 54
3 15 4 54
3 4 53 54
3 19 18 7
3 19 8 49
3 8 20 31
3 8 31 44
3 8 44 49
3 18 19 49
CELL_DATA 88
SCALARS mises double 1
LOOKUP_TABLE default
8087669.089689422 6407593.878339423 6680238.699162746 8122611.380279447 8293918.03630583 10055109.64221801 5838920.974890718 7993029.338709953 8434052.081486026 7541050.644711105 4242029.0044051595 7950379.255075453 6789069.205321595 7076234.882786861 7062255.191786009 7429603.217218787 7182690.529657562 7857461.884039264 7499623.189281843 7492201.679792332 8124744.108992097 6242834.305719673 6482208.981525912 6489939.009907363 7030883.185310137 7425727.683805066 7890427.80572111 8175643.677962589 7434733.36115204 8256275.317755569 7484199.910636311 7624048.774033418 8311337.807809163 7553557.578796812 8428526.876890512 6965996.865038341 8460706.38352494 6557136.578388293 7450687.910738532 7344483.967309021 7467696.980408083 6840570.664135079 6237326.542207636 7376147.179111673 6237020.3997489605 6816590.734568053 8381094.872578523 7485390.414634594 5946189.866108895 5951090.702438282 6859396.803249068 6228594.046698964 6235327.163147923 8219870.047699397 7936460.091140201 6776317.374541595 7091292.119360976 6197215.868301431 7579218.4035589155 7571579.993212511 7531353.833541291 6587451.674829458 7557218.428538541 7582780.8689078055 7565506.255915631 7034257.583429438 7060970.563912809 6373696.6869792165 4298128.668330382 7404889.749352063 7799021.14818442 7543104.850416798 7572218.5627353955 5415211.986898486 5525265.499792265 4329318.169224572 8749633.918890812 9894676.560269186 10163243.224427348 8809167.50362007 4982547.7856307905 6640043.366898473 5925853.137287283 8474629.952605342 10082049.733064182 8461934.210049378 7157932.107290247 5805673.0734290285
VECTORS principal_stress_1 float
8339789.6418021 -969723.8032220242 0.0
6281092.169716611 103598.83302686707 0.0
6768063.226481011 349919.0171384273 0.0
8544390.375999654 359681.41301721986 0.0
8509345.746269008 67871.4802541719 0.0
10257105.51492978 -574992.2062722079 0.0
5967373.868731044 -594371.0316419249 0.0
8277706.607738206 -927004.7696050103 0.0
8441252.091214687 -2033824.1907064607 0.0
7852670.0413849205 24330.768287050774 0.0
4185002.7040171716 -306645.86437459255 0.0
7970692.658722466 -434193.5099696902 0.0
6729848.388317684 283315.07290720363 0.0
6946137.734829741 -12398.157899010303 0.0
7234227.1145767085 -999944.6240070541 0.0
7842929.548947358 -226921.96881041804 0.0
6901679.01196379 -28240.274744361082 0.0
8149456.667287526 -59947.488638573835 0.0
7895333.72229837 -25845.313174351708 0.0
7861985.9216916375 32015.721346426424 0.0
8517899.65148367 -217523.15172284844 0.0
6119789.562840862 -72331.77464091637 0.0
6740788.24496567 -393237.48887339525 0.0
6739351.826440414 400792.4665346615 0.0
7158113.268001358 863737.3623985812 0.0
7779401.542969029 110056.42761852944 0.0
8173383.787238598 -11935.23543221518 0.0
8507785.895972537 233774.26994892987 0.0
7829320.071412888 -229822.13046924022 0.0
8102549.597630855 -531304.2756157694 0.0
7837236.307321869 75220.78096071992 0.0
7902526.959470866 46137.83180761355 0.0
8503369.300797334 -72639.98069592247 0.0
7950435.831267177 -17106.237752311114 0.0
8213014.218661885 588887.0560322704 0.0
6829890.097503079 28293.480849136376 0.0
8620547.348717226 93283.5450872754 0.0
6243236.311673319 -1302255.163837419 0.0
7752311.122386399 343398.44601578475 0.0
7654599.943032605 -96987.36364689739 0.0
7732358.439840428 -86870.70230926198 0.0
6802141.657428177 -278418.41448837664 0.0
6517241.071852583 78616.09649584019 0.0
7501970.569811338 -337266.9477623542 0.0
6537308.53634274 -100151.31643831503 0.0
6954614.551285932 -731987.6633605417 0.0
8533036.013764644 -128942.55982130645 0.0
7637408.763807733 -355037.99352123373 0.0
6492169.490360129 305849.47683784825 0.0
6497852.026872406 -317505.62390404806 0.0
6810420.709474141 282771.988850725 0.0
6249021.312188523 -224735.2037627216 0.0
6547822.821017326 47089.387065181116 0.0
8619415.557184735 -148450.6924820814 0.0
8036676.37746532 123728.83769246368 0.0
6407555.153146297 1283994.5808796037 0.0
7029971.334274742 -584796.841127458 0.0
6249924.038235148 346269.8248498311 0.0
7693035.111905181 125132.82109731715 0.0
7802140.622960842 -10238.384141012335 0.0
7590700.827828722 -461354.1373355557 0.0
6570435.6822828995 -323491.2263368497 0.0
7562595.09680342 251150.6042898227 0.0
7796143.608048335 197578.6277773332 0.0
7724239.583395077 70932.40545621426 0.0
7074264.955963956 -138418.00044356802 0.0
7218168.565324551 -147855.50440483543 0.0
6440677.908763245 -519442.7290685424 0.0
4421010.318774187 168524.11793352867 0.0
7338224.247753689 486710.8453718786 0.0
7911106.263769274 -352262.0049053256 0.0
7507014.871577468 -122989.32764058409 0.0
7353691.975944593 48434.00248485345 0.0
5600279.517506939 -871705.7060186019 0.0
5682539.619439754 865526.8044819316 0.0
4340921.734392983 503261.183659764 0.0
8755814.215089783 1654386.2375564435 0.0
10179663.942276942 836291.5437561148 0.0
10364629.04137822 -512107.7225099487 0.0
8656956.390953004 -1317374.443680683 0.0
4847284.964388738 -557020.1977864904 0.0
6772154.442520445 -1087312.2501617307 0.0
5973142.426280446 533600.7278740795 0.0
8408103.001342801 1203764.3261484595 0.0
10263494.532846877 500506.3540277819 0.0
8735395.044124138 823930.1384452174 0.0
7311755.355828122 947778.6202716256 0.0
5984336.537875451 840444.1673610685 0.0
VECTORS principal_stress_2 float
969723.8032220247 8339789.6418021 0.0
-103598.83302686679 6281092.169716611 0.0
-349919.01713842724 6768063.226481011 0.0
-359681.4130172198 8544390.375999654 0.0
-67871.48025417214 8509345.746269008 0.0
574992.2062722079 10257105.51492978 0.0
594371.0316419258 5967373.868731044 0.0
927004.76960501 8277706.607738206 0.0
2033824.1907064617 8441252.091214687 0.0
-24330.768287049785 7852670.0413849205 0.0
306645.864374593 4185002.7040171716 0.0
434193.5099696906 7970692.658722466 0.0
-283315.07290720305 6729848.388317684 0.0
12398.15789901004 6946137.734829741 0.0
999944.624007055 7234227.1145767085 0.0
226921.96881041798 7842929.548947358 0.0
28240.27474436168 6901679.01196379 0.0
59947.48863857343 8149456.667287526 0.0
25845.313174352137 7895333.72229837 0.0
-32015.72134642608 7861985.9216916375 0.0
217523.15172284818 8517899.65148367 0.0
72331.77464091628 6119789.562840862 0.0
393237.4888733955 6740788.24496567 0.0
-400792.4665346609 6739351.826440414 0.0
-863737.3623985817 7158113.268001358 0.0
-110056.42761852952 7779401.542969029 0.0
11935.235432215843 8173383.787238598 0.0
-233774.26994892926 8507785.895972537 0.0
229822.1304692412 7829320.071412888 0.0
531304.2756157698 8102549.597630855 0.0
-75220.7809607199 7837236.307321869 0.0
-46137.83180761393 7902526.959470866 0.0
72639.9806959223 8503369.300797334 0.0
17106.237752311692 7950435.831267177 0.0
-588887.0560322709 8213014.218661885 0.0
-28293.480849135747 6829890.097503079 0.0
-93283.54508727537 8620547.348717226 0.0
1302255.1638374187 6243236.311673319 0.0
-343398.4460157844 7752311.122386399 0.0
96987.36364689759 7654599.943032605 0.0
86870.70230926211 7732358.439840428 0.0
278418.4144883775 6802141.657428177 0.0
-78616.0964958395 6517241.071852583 0.0
337266.9477623551 7501970.569811338 0.0
100151.31643831504 6537308.53634274 0.0
731987.6633605417 6954614.551285932 0.0
128942.55982130625 8533036.013764644 0.0
355037.9935212339 7637408.763807733 0.0
-305849.4768378483 6492169.490360129 0.0
317505.6239040485 6497852.026872406 0.0
-282771.9888507239 6810420.709474141 0.0
224735.2037627225 6249021.312188523 0.0
-47089.38706518077 6547822.821017326 0.0
148450.69248208244 8619415.557184735 0.0
-123728.83769246374 8036676.37746532 0.0
-1283994.5808796035 6407555.153146297 0.0
584796.8411274581 7029971.334274742 0.0
-346269.8248498305 6249924.038235148 0.0
-125132.82109731741 7693035.111905181 0.0
10238.384141013497 7802140.622960842 0.0
461354.13733555545 7590700.827828722 0.0
323491.22633685084 6570435.6822828995 0.0
-251150.60428982286 7562595.09680342 0.0
-197578.62777733264 7796143.608048336 0.0
-70932.40545621335 7724239.583395077 0.0
138418.000443568 7074264.955963956 0.0
147855.5044048366 7218168.5653245505 0.0
519442.7290685434 6440677.908763245 0.0
-168524.11793352885 4421010.318774187 0.0
-486710.84537187783 7338224.247753689 0.0
352262.00490532524 7911106.263769274 0.0
122989.32764058486 7507014.871577468 0.0
-48434.002484853336 7353691.975944593 0.0
871705.7060186025 5600279.517506939 0.0
-865526.804481931 5682539.619439754 0.0
-503261.1836597636 4340921.734392983 0.0
-1654386.2375564435 8755814.215089783 0.0
-836291.5437561136 10179663.942276942 0.0
512107.7225099494 10364629.04137822 0.0
1317374.4436806834 8656956.390953004 0.0
557020.1977864908 4847284.964388738 0.0
1087312.2501617312 6772154.442520445 0.0
-533600.7278740788 5973142.426280446 0.0
-1203764.3261484592 8408103.001342801 0.0
-500506.3540277807 10263494.532846877 0.0
-823930.1384452174 8735395.044124138 0.0
-947778.6202716256 7311755.355828122 0.0
-840444.1673610685 5984336.537875451 0.0
POINT_DATA 57
VECTORS displacements float
0.0 0.0 0.0
3.6683050127613616e-05 3.1182941022042297e-06 0.0
3.859242346401702e-05 2.3281893208886983e-06 0.0
6.301257008783363e-05 2.254538316063923e-06 0.0
6.470074531421715e-05 3.1968754434875426e-06 0.0
0.00010691460373843838 5.433181561021068e-06 0.0
0.00010708207325340546 -4.994426850364132e-06 0.0
6.434995580045696e-05 -2.936287825547247e-06 0.0
6.297897369913513e-05 -2.0990566807737967e-06 0.0
3.852300122298023e-05 -2.092432003272099e-06 0.0
3.6391943126238596e-05 -2.937009511125635e-06 0.0
0.0 0.0 0.0
1.9914371582565098e-05 4.018291394714144e-06 0.0
3.707990328123396e-05 2.8769698957269007e-06 0.0
5.066307381769252e-05 2.079103978951683e-06 0.0
6.427074618810767e-05 2.8505679603084874e-06 0.0
8.242353974018501e-05 3.038904693162613e-06 0.0
9.657979443566845e-05 3.57159980946788e-07 0.0
8.219837561146323e-05 -2.366840142451381e-06 0.0
6.405842798190644e-05 -2.6296310946652933e-06 0.0
5.074068430583409e-05 -1.9785905292869835e-06 0.0
3.672318213252923e-05 -2.6767681337911646e-06 0.0
1.9906887596482535e-05 -3.9691039810678615e-06 0.0
0.0 0.0 0.0
4.5446444173370805e-05 -7.352119493303584e-07 0.0
3.996293523197074e-05 -1.2552422752800204e-06 0.0
4.3158475098111144e-05 -2.726075865466745e-07 0.0
4.9168286782531825e-05 -1.405164456646872e-07 0.0
5.5930437960549196e-05 8.905435397857554e-07 0.0
4.627010044549468e-05 3.5331288908920176e-07 0.0
3.969109308025021e-05 5.142097768766202e-07 0.0
5.5935741603348066e-05 -7.782162640233522e-07 0.0
3.448471207145495e-05 -2.508798908670501e-06 0.0
5.2566491081646184e-05 3.7008793887570966e-07 0.0
4.270685960861742e-05 1.0851549265166744e-06 0.0
3.538765061910567e-05 2.460372875560075e-06 0.0
2.922796099848216e-05 1.053079574718544e-06 0.0
1.5636721849217702e-05 -9.883321244394767e-08 0.0
3.6256150074939346e-05 -7.740690536983949e-07 0.0
2.7131986329693326e-05 -1.501730414197607e-06 0.0
4.9623666571969004e-05 9.402218247784649e-07 0.0
5.857980896133673e-05 5.032692327473885e-07 0.0
5.530931021789237e-05 -1.5645695835591516e-07 0.0
6.146741880142934e-05 -3.628496914291953e-08 0.0
5.9836258944377355e-05 -7.900924811968374e-07 0.0
5.079552108165313e-05 -7.13830962798075e-07 0.0
8.489159902969236e-06 -8.315999991023915e-07 0.0
8.954693141706586e-05 -2.7811244445603287e-07 0.0
7.749230907401906e-05 8.793051784913226e-08 0.0
6.779049510559948e-05 -1.4713121755712018e-06 0.0
6.852114969532079e-05 4.625057267134131e-07 0.0
8.815868899403779e-05 7.296017157207253e-07 0.0
8.482168760218756e-06 8.009764401070208e-07 0.0
7.53469821530823e-05 1.9537806811576476e-06 0.0
6.621938704189959e-05 1.9094566311878935e-06 0.0
6.1270711070094e-05 1.2975030155371319e-06 0.0
6.335551201361872e-05 7.671427473279968e-07 0.0