# vtk DataFile Version 2.0
Really cool data
ASCII
DATASET POLYDATA
POINTS 57 float
0.0 0.0 0
0.125 0.0 0
0.125 0.0001 0
0.175 0.0001 0
0.175 0.0 0
0.3 0.0 0
0.3 0.1 0
0.175 0.1 0
0.175 0.0999 0
0.125 0.0999 0
0.125 0.1 0
0.0 0.1 0
0.06250000013078053 0.0 0
0.125 5.000000011187405e-05 0
0.1500000000542101 0.0001 0
0.175 4.999999986140697e-05 0
0.2375000000379471 0.0 0
0.3 0.05000000007786663 0
0.2374999999024218 0.09999999999999999 0
0.175 0.09994999999186799 0
0.1499999998970008 0.09990000000000002 0
0.125 0.09994999993494777 0
0.06249999984482352 0.1 0
0.0 0.05000000007786663 0
0.1374448333348746 0.08367118387394502 0
0.162500000027105 0.01633797628574772 0
0.1375000000271051 0.01633797630922139 0
0.1500000000396211 0.02966781911356602 0
0.1626003892913117 0.08482258645213654 0
0.1456265241350001 0.06977609650218908 0
0.1500000000370103 0.01561094292713378 0
0.1327082979642231 0.03406259131362436 0
0.1669939539025999 0.0338789231167114 0
0.1219413232947116 0.02278427552590103 0
0.1133051449077339 0.04168039561033315 0
0.1166889750287776 0.08368312726444417 0
0.1900539080677928 0.02274339237438189 0
0.185975160011573 0.04438352763273128 0
0.1433132109775063 0.04522478242670215 0
0.1294182433041446 0.06884435934682781 0
0.1063123330228701 0.06594525230897222 0
0.08131108407533306 0.0482020462679575 0
0.1704453252610106 0.05449126545912189 0
0.1928716424622369 0.06937105224586333 0
0.2166430290286882 0.04925121698595417 0
0.04496324697567924 0.05785844123821333 0
0.107722507486937 0.0161166739149005 0
0.2559574636901577 0.05900932966274854 0
0.1400344333299265 0.05863360609603703 0
0.173469352330112 0.07464535763256402 0
0.1530923189566633 0.0566696227564266 0
0.1504325036346167 0.0818691443007103 0
0.1567689618274802 0.04398648257450561 0
0.1271210152124436 0.05228947906089135 0
0.02705778594768591 0.02640329310328094 0
0.2723131895334812 0.02558630064186449 0
0.1592777356014524 0.07037901218385807 0
POLYGONS 88 352
3 20 9 24
3 2 26 33
3 40 22 41
3 18 43 44
3 25 3 36
3 24 9 35
3 29 24 39
3 11 23 45
3 22 11 45
3 12 41 45
3 17 6 47
3 41 12 46
3 29 39 48
3 26 27 31
3 6 18 47
3 44 16 47
3 27 26 30
3 31 38 53
3 27 25 32
3 0 12 54
3 16 5 55
3 32 42 52
3 25 27 30
3 47 16 55
3 41 22 45
3 18 44 47
3 31 27 38
3 26 14 30
3 12 45 54
3 40 34 53
3 24 35 39
3 24 29 51
3 28 20 51
3 32 37 42
3 14 25 30
3 38 48 53
3 42 37 43
3 20 24 51
3 26 31 33
3 32 25 36
3 28 51 56
3 38 27 52
3 23 0 54
3 34 40 41
3 42 43 49
3 5 17 55
3 34 31 53
3 39 40 53
3 39 35 40
3 51 29 56
3 27 32 52
3 29 50 56
3 49 28 56
3 32 36 37
3 42 50 52
3 45 23 54
3 33 31 34
3 50 42 56
3 29 48 50
3 17 47 55
3 48 39 53
3 48 38 50
3 43 37 44
3 50 38 52
3 33 34 46
3 42 49 56
3 34 41 46
3 12 1 46
3 1 13 46
3 13 2 46
3 2 14 26
3 2 33 46
3 14 3 25
3 16 3 15
3 3 16 36
3 16 15 4
3 19 18 7
3 8 18 19
3 18 8 43
3 8 20 28
3 8 28 49
3 43 8 49
3 9 21 22
3 9 22 35
3 21 10 22
3 36 16 44
3 35 22 40
3 37 36 44
CELL_DATA 88
SCALARS mises double 1
LOOKUP_TABLE default
6681127.304490726 6674364.76308549 6706591.347086706 6537760.468345742 6739167.025192597 6655086.461092451 6678523.029029765 6012517.823334306 6550809.421084861 6764523.381541034 5907098.7416536575 6644570.087731228 6681017.100105786 6685802.0679697925 7908419.573660999 6224792.193139748 6674422.662213622 6707592.095862901 6693842.474040798 6428285.287735469 8636784.036994798 6645058.416156234 6681620.106280937 6439763.032777992 6893022.812971914 6048675.901608205 6686861.172497923 6675505.057043139 6661403.045971243 6727069.455357326 6660397.925513641 6671379.529334724 6673138.477519696 6550947.930912572 6680620.244050403 6698679.1069690995 6574982.969834539 6670018.567867104 6658490.532110076 6737097.92065178 6669669.110852882 6690105.188817495 5956540.706291428 6792011.980524305 6682843.844221715 7455961.025201047 6734226.694295204 6699888.504201035 6694130.824717934 6677393.311529586 6686907.177555715 6674065.014352701 6675418.088174585 6612246.5876090685 6658914.105912411 6115046.342869615 6715643.163349727 6662043.122116872 6681714.476827605 4551374.870422 6697564.967757228 6686198.4732503 6375258.810704428 6681706.378118449 6690273.482331918 6658517.644963813 6761607.583345782 6573067.918186094 6646196.073516567 6682012.279643203 6679502.3571287 6633623.72970166 6661762.997335536 6862500.478175828 6835565.961062024 6862529.467817203 6842778.8320919275 6842749.930673316 6816120.123253224 6684693.555064406 6685494.558558565 6692750.640437884 6574130.4845777275 6576614.12909228 6574158.256171738 6574269.803699308 6611897.211351314 6435021.146745591
VECTORS principal_stress_1 float
6682344.777477668 -3025.1364346337336 0.0
6671604.343838445 4437.398083075425 0.0
6667783.283232982 69529.13280853971 0.0
6681416.787803493 204664.05445051208 0.0
6711114.216722523 -11725.02764166292 0.0
6659053.824756596 -5302.768376995524 0.0
6681150.362220677 5896.326438894228 0.0
6560988.167982647 -131662.33688599474 0.0
6748632.791932292 -333587.52586969873 0.0
6751769.321256742 -89924.766777045 0.0
5738729.774274194 1262823.0216744426 0.0
6619870.286113762 -72342.24251839358 0.0
6678868.606884317 8808.721548290056 0.0
6684112.067601105 -6107.311405823288 0.0
7922015.859338074 369089.13471079984 0.0
6444526.08574154 -115419.36758214062 0.0
6673596.525301492 -3569.488816768796 0.0
6693208.237273886 -1271.819725204362 0.0
6684496.279242278 -9604.731933521947 0.0
6729545.308026085 329933.3191564647 0.0
8289279.922124768 -711014.7948525939 0.0
6676963.361336257 -10437.675374899922 0.0
6681593.919939517 -3690.167393847562 0.0
6727111.753646611 -283175.94054681057 0.0
6878103.048934623 105199.29148263989 0.0
6090628.466470752 409150.0232614365 0.0
6683584.293649852 -6254.752837346174 0.0
6674726.321165245 4381.186872290068 0.0
6772412.7485638345 246479.81673594794 0.0
6698545.27435175 17849.314817390285 0.0
6655592.4868154 18496.378413386214 0.0
6673709.184098566 4731.286107063222 0.0
6675096.158955667 3044.41296632746 0.0
6574338.772357495 -11662.64431856375 0.0
6680409.92838445 4268.517075438615 0.0
6695378.940821143 513.1286646137826 0.0
6659136.641108359 57221.025252849104 0.0
6671502.743836712 -951.1904451842 0.0
6652011.312951862 -14359.687890853913 0.0
6746018.209942595 -54323.18200809182 0.0
6674996.17159999 4856.034002077392 0.0
6688775.479501203 -2700.270526347031 0.0
6501048.262240628 204255.26859644576 0.0
6766000.040371226 13572.831611676878 0.0
6698809.818766896 54334.05761049037 0.0
7026768.152222256 -1182647.0081738727 0.0
6721891.407662678 20.667201247830693 0.0
6688469.951060897 17064.66624659025 0.0
6687793.190550054 25564.337333216994 0.0
6680357.609002058 3732.9526808448322 0.0
6695483.944956776 -19552.12127542266 0.0
6681937.83889482 7248.046225853554 0.0
6678677.358318583 13305.602972193254 0.0
6687207.150035469 -101442.43800084488 0.0
6671248.479681705 756.9524968252266 0.0
6421683.4714750415 -41442.823729237185 0.0
6699720.87924135 -22364.951936038637 0.0
6671324.994021041 4768.9251614300865 0.0
6684593.327115236 630.5775164264325 0.0
4654765.46729846 -757049.3690108864 0.0
6687740.2761119325 7118.241262322662 0.0
6681807.671510952 89.84844202266385 0.0
6445283.09951203 60680.43593827925 0.0
6690343.024359011 -12996.763691806667 0.0
6666705.654730796 -35829.968867550735 0.0
6679006.475809655 18232.91577543731 0.0
6744100.838116873 -36100.46606385277 0.0
6573388.453025243 -16053.608076018585 0.0
6637061.77928215 1804.2779551453314 0.0
6668622.641761439 10930.345189618489 0.0
6676924.946332222 3132.7537522817966 0.0
6625637.043232646 -1825.5466852727834 0.0
6663360.697533024 6170.585905224921 0.0
6862535.617822439 -16470.077025612507 0.0
6881159.389717284 -122296.68962985654 0.0
6862533.861035925 -5490.027071018207 0.0
6842783.210271836 5474.227465338565 0.0
6842784.96200032 16422.676417255163 0.0
6861303.531617216 131003.48373749237 0.0
6684668.231208321 3718.9713444755926 0.0
6680538.809656623 9023.223207659054 0.0
6685930.111416836 43450.494879700855 0.0
6574164.147795065 -15777.992680311954 0.0
6572674.839068583 11282.93778216653 0.0
6574162.4648441225 -5259.336802477529 0.0
6740003.828307273 -245987.68467980987 0.0
6596515.9324922 46748.36789453575 0.0
6497864.158201218 -86012.90151431135 0.0
VECTORS principal_stress_2 float
3025.1364346338723 6682344.777477668 0.0
-4437.398083074441 6671604.343838445 0.0
-69529.1328085386 6667783.283232982 0.0
-204664.05445051118 6681416.787803493 0.0
11725.027641663835 6711114.216722523 0.0
5302.768376996423 6659053.824756596 0.0
-5896.326438893761 6681150.362220677 0.0
131662.3368859954 6560988.167982647 0.0
333587.52586969954 6748632.791932292 0.0
89924.76677704566 6751769.321256742 0.0
-1262823.0216744426 5738729.774274194 0.0
72342.24251839439 6619870.286113762 0.0
-8808.721548289273 6678868.606884317 0.0
6107.31140582441 6684112.067601105 0.0
-369089.13471079967 7922015.859338074 0.0
115419.36758214062 6444526.08574154 0.0
3569.4888167688446 6673596.525301492 0.0
1271.8197252049588 6693208.237273886 0.0
9604.731933521689 6684496.279242278 0.0
-329933.31915646506 6729545.308026085 0.0
711014.7948525951 8289279.922124768 0.0
10437.675374900044 6676963.361336257 0.0
3690.1673938480544 6681593.919939517 0.0
283175.9405468112 6727111.753646611 0.0
-105199.29148264014 6878103.048934623 0.0
-409150.02326143574 6090628.466470752 0.0
6254.752837346048 6683584.293649852 0.0
-4381.186872290377 6674726.321165245 0.0
-246479.81673594806 6772412.7485638345 0.0
-17849.31481739016 6698545.27435175 0.0
-18496.37841338507 6655592.4868154 0.0
-4731.286107062175 6673709.184098566 0.0
-3044.4129663276526 6675096.158955667 0.0
11662.644318564731 6574338.772357495 0.0
-4268.517075438792 6680409.92838445 0.0
-513.128664613473 6695378.940821143 0.0
-57221.02525284822 6659136.641108359 0.0
951.1904451846253 6671502.743836712 0.0
14359.687890854659 6652011.312951862 0.0
54323.182008091855 6746018.209942595 0.0
-4856.034002076344 6674996.17159999 0.0
2700.270526347492 6688775.479501203 0.0
-204255.26859644477 6501048.262240628 0.0
-13572.831611676462 6766000.040371226 0.0
-54334.05761049017 6698809.818766896 0.0
1182647.0081738727 7026768.152222256 0.0
-20.667201247668565 6721891.407662678 0.0
-17064.66624658944 6688469.951060897 0.0
-25564.337333215983 6687793.190550054 0.0
-3732.952680843748 6680357.609002058 0.0
19552.121275422593 6695483.944956776 0.0
-7248.046225853329 6681937.83889482 0.0
-13305.602972192471 6678677.358318583 0.0
101442.43800084517 6687207.150035469 0.0
-756.9524968243387 6671248.479681705 0.0
41442.823729237614 6421683.4714750415 0.0
22364.95193603849 6699720.87924135 0.0
-4768.925161429484 6671324.994021041 0.0
-630.5775164258315 6684593.327115236 0.0
757049.3690108864 4654765.46729846 0.0
-7118.241262322572 6687740.2761119325 0.0
-89.84844202269639 6681807.671510952 0.0
-60680.435938278795 6445283.09951203 0.0
12996.763691806336 6690343.024359011 0.0
35829.96886755139 6666705.654730796 0.0
-18232.915775436366 6679006.475809655 0.0
36100.46606385388 6744100.838116873 0.0
16053.60807601961 6573388.453025243 0.0
-1804.277955144851 6637061.77928215 0.0
-10930.3451896187 6668622.641761439 0.0
-3132.7537522817847 6676924.946332222 0.0
1825.546685272577 6625637.043232646 0.0
-6170.585905224071 6663360.697533024 0.0
16470.077025613005 6862535.617822439 0.0
122296.68962985693 6881159.389717284 0.0
5490.027071018566 6862533.861035925 0.0
-5474.2274653380055 6842783.210271836 0.0
-16422.676417255017 6842784.96200032 0.0
-131003.48373749177 6861303.531617216 0.0
-3718.971344474839 6684668.231208321 0.0
-9023.223207658457 6680538.809656623 0.0
-43450.49487970009 6685930.111416836 0.0
15777.992680312578 6574164.147795065 0.0
-11282.937782165838 6572674.839068583 0.0
5259.336802478128 6574162.4648441225 0.0
245987.68467981037 6740003.828307273 0.0
-46748.36789453578 6596515.9324922 0.0
86012.9015143116 6497864.158201218 0.0
POINT_DATA 57
VECTORS displacements float
0.0 0.0 0.0
3.9569899014079855e-05 3.0650225943565893e-06 0.0
3.9570450909258474e-05 3.05851758519472e-06 0.0
5.5604915509497434e-05 2.865202154075645e-06 0.0
5.560340749687259e-05 2.871800650151699e-06 0.0
0.00010145707226323366 5.304644405604064e-06 0.0
0.00010016889087030437 -4.6704259231234766e-06 0.0
5.583536979907777e-05 -3.449112767381452e-06 0.0
5.58362074919221e-05 -3.442533262044708e-06 0.0
3.97706606354109e-05 -3.420525474369074e-06 0.0
3.977053062664572e-05 -3.4268466942138133e-06 0.0
0.0 0.0 0.0
1.981855148191364e-05 3.2546973988249966e-06 0.0
3.9570131986984705e-05 3.0617878734881747e-06 0.0
4.7596838994397085e-05 2.9643586219317096e-06 0.0
5.560419317636138e-05 2.8685013666488605e-06 0.0
7.622399280573307e-05 1.850109757131672e-06 0.0
9.083986227000594e-05 -4.562602663088993e-07 0.0
7.639660818255729e-05 -2.8465996304605747e-06 0.0
5.583582022758989e-05 -3.445822978806171e-06 0.0
4.780173902175669e-05 -3.430909820312585e-06 0.0
3.977056528887709e-05 -3.4236860461960305e-06 0.0
2.0016445482609128e-05 -3.4322465295731686e-06 0.0
0.0 0.0 0.0
4.376739958044092e-05 -2.384838873841591e-06 0.0
5.16768370235095e-05 1.8768920931302565e-06 0.0
4.365067709017921e-05 1.9649175861717093e-06 0.0
4.770280118556398e-05 1.0645661583879345e-06 0.0
5.183775624731993e-05 -2.467619506661496e-06 0.0
4.637656892358934e-05 -1.5010041973860306e-06 0.0
4.7659194777954906e-05 1.967702201237458e-06 0.0
4.2157007203413115e-05 8.387645544563841e-07 0.0
5.318151306088363e-05 7.134478451278945e-07 0.0
3.868726657606283e-05 1.60895348409005e-06 0.0
3.5900236101863244e-05 3.83938974585046e-07 0.0
3.712405388682533e-05 -2.3902011432810807e-06 0.0
6.062594114444443e-05 1.2191753517861069e-06 0.0
5.9194470718748644e-05 7.884479571534932e-09 0.0
4.5594696032948506e-05 8.232659031394137e-08 0.0
4.116990422074042e-05 -1.4308796559514055e-06 0.0
3.372843942747518e-05 -1.2354343159614478e-06 0.0
2.5505622820000828e-05 3.317858114784836e-08 0.0
5.431417009695395e-05 -5.548315442784507e-07 0.0
6.15537504770014e-05 -1.3869334210934174e-06 0.0
6.87004161495935e-05 -3.350211711121265e-07 0.0
1.3613891955449074e-05 -5.46612459317443e-07 0.0
3.412889878315693e-05 2.0992607087548594e-06 0.0
8.047549956630933e-05 -2.859216809219042e-07 0.0
4.456244888754647e-05 -7.796451758258624e-07 0.0
5.5319710704564525e-05 -1.8083397813073045e-06 0.0
4.8755154665662036e-05 -6.732477673282023e-07 0.0
4.793190970387338e-05 -2.277073519278324e-06 0.0
4.9918709949383995e-05 1.21280833822361e-07 0.0
4.03938278223688e-05 -3.474591549672501e-07 0.0
8.116235180010721e-06 5.105090180084167e-07 0.0
8.657526458470792e-05 8.558779451858695e-07 0.0
5.076076551498066e-05 -1.547314707451161e-06 0.0